 vasp.6.4.2 20Jul23 (build Oct 16 2024 22:17:43) complex

 executed on             LinuxIFC date 2025.02.10  22:45:57

 INCAR:
   SYSTEM = Cu FCC
   PREC = Accurate
   EDIFF = 1E-10
   EDIFFG = -1E-5
   ISMEAR = 0
   SIGMA = 0.03
   GGA = PE
   ENCUT = 520
   NSW = 100
   IBRION = 2
   ISIF = 3
   LWAVE = .FALSE.
   LCHARG = .FALSE.

 POTCAR:    PAW_PBE Cu 22Jun2005
 POTCAR:    PAW_PBE Cu 22Jun2005
   VRHFIN =Cu: d10 p1

   TITEL  = PAW_PBE Cu 22Jun2005
   POMASS =   63.546; ZVAL   =   11.000    mass and valenz
   ENMAX  =  295.446; ENMIN  =  221.585 eV

  PAW_PBE Cu 22Jun2005                  :

 POSCAR: Copper  [FCC,FCC,cF4] (STD_PRIM doi:10.1
  positions in direct lattice
  velocities in cartesian coordinates
 exchange correlation table for  LEXCH =        8
   RHO(1)=    0.500       N(1)  =     2000
   RHO(2)=  100.500       N(2)  =     4000

 VTST: version 4.1, (05/19/21)

 CHAIN: initializing optimizer

 OPT: Using VASP Conjugate-Gradient optimizer
 CHAIN: Read ICHAIN            0

 POSCAR: Copper  [FCC,FCC,cF4] (STD_PRIM doi:10.1
  positions in direct lattice
  velocities in cartesian coordinates

 ion  position               nearest neighbor table
   1  0.000  0.000  0.000-

  LATTYP: Found a face centered cubic cell.
 ALAT       =     3.6364701533

  Lattice vectors:

 A1 = (   0.0000000000,   1.8182350767,   1.8182350767)
 A2 = (   1.8182350767,   0.0000000000,   1.8182350767)
 A3 = (   1.8182350767,   1.8182350767,   0.0000000000)

Analysis of symmetry for initial positions (statically):
 Subroutine PRICEL returns:
 Original cell was already a primitive cell.

 Routine SETGRP: Setting up the symmetry group for a
 face centered cubic supercell.

 Subroutine GETGRP returns: Found 48 space group operations
 (whereof 48 operations were pure point group operations)
 out of a pool of 48 trial point group operations.

The static configuration has the point symmetry O_h .

Analysis of symmetry for dynamics (positions and initial velocities):
 Subroutine PRICEL returns:
 Original cell was already a primitive cell.

 Routine SETGRP: Setting up the symmetry group for a
 face centered cubic supercell.

 Subroutine GETGRP returns: Found 48 space group operations
 (whereof 48 operations were pure point group operations)
 out of a pool of 48 trial point group operations.

The dynamic configuration has the point symmetry O_h .

 Subroutine INISYM returns: Found 48 space group operations
 (whereof 48 operations are pure point group operations),
 and found     1 'primitive' translations

                                     Primitive cell

  volume of cell :      12.0221

  direct lattice vectors                    reciprocal lattice vectors
     0.000000000  1.818235077  1.818235077    -0.274991945  0.274991945  0.274991945
     1.818235077  0.000000000  1.818235077     0.274991945 -0.274991945  0.274991945
     1.818235077  1.818235077  0.000000000     0.274991945  0.274991945 -0.274991945

  length of vectors
     2.571372705  2.571372705  2.571372705     0.476300020  0.476300020  0.476300020

  position of ions in fractional coordinates (direct lattice)
     0.000000000  0.000000000  0.000000000

  ion indices of the primitive-cell ions
   primitive index   ion index
                 1           1

 KPOINTS: KPOINTS

Automatic generation of k-mesh.
 Grid dimensions read from file:
 generate k-points for:   10   10   10

 Generating k-lattice:

  Cartesian coordinates                     Fractional coordinates (reciprocal lattice)
    -0.027499194  0.027499194  0.027499194     0.100000000  0.000000000  0.000000000
     0.027499194 -0.027499194  0.027499194     0.000000000  0.100000000  0.000000000
     0.027499194  0.027499194 -0.027499194     0.000000000  0.000000000  0.100000000

  Length of vectors
     0.047630002  0.047630002  0.047630002

  Shift w.r.t. Gamma in fractional coordinates (k-lattice)
     0.000000000  0.000000000  0.000000000

 Subroutine IBZKPT returns following result:

 Found     47 irreducible k-points:

 Following reciprocal coordinates:
            Coordinates               Weight
  0.000000  0.000000  0.000000      1.000000
  0.100000  0.000000  0.000000      8.000000
  0.200000  0.000000  0.000000      8.000000
  0.300000  0.000000  0.000000      8.000000
  0.400000  0.000000  0.000000      8.000000
  0.500000  0.000000  0.000000      4.000000
  0.100000  0.100000  0.000000      6.000000
  0.200000  0.100000  0.000000     24.000000
  0.300000  0.100000  0.000000     24.000000
  0.400000  0.100000  0.000000     24.000000
  0.500000  0.100000  0.000000     24.000000
 -0.400000  0.100000  0.000000     24.000000
 -0.300000  0.100000  0.000000     24.000000
 -0.200000  0.100000  0.000000     24.000000
 -0.100000  0.100000  0.000000     12.000000
  0.200000  0.200000  0.000000      6.000000
  0.300000  0.200000  0.000000     24.000000
  0.400000  0.200000  0.000000     24.000000
  0.500000  0.200000  0.000000     24.000000
 -0.400000  0.200000  0.000000     24.000000
 -0.300000  0.200000  0.000000     24.000000
 -0.200000  0.200000  0.000000     12.000000
  0.300000  0.300000  0.000000      6.000000
  0.400000  0.300000  0.000000     24.000000
  0.500000  0.300000  0.000000     24.000000
 -0.400000  0.300000  0.000000     24.000000
 -0.300000  0.300000  0.000000     12.000000
  0.400000  0.400000  0.000000      6.000000
  0.500000  0.400000  0.000000     24.000000
 -0.400000  0.400000  0.000000     12.000000
  0.500000  0.500000  0.000000      3.000000
  0.300000  0.200000  0.100000     24.000000
  0.400000  0.200000  0.100000     48.000000
  0.500000  0.200000  0.100000     48.000000
 -0.400000  0.200000  0.100000     24.000000
  0.400000  0.300000  0.100000     24.000000
  0.500000  0.300000  0.100000     48.000000
 -0.400000  0.300000  0.100000     48.000000
 -0.300000  0.300000  0.100000     48.000000
 -0.200000  0.300000  0.100000     24.000000
  0.500000  0.400000  0.100000     24.000000
 -0.400000  0.400000  0.100000     48.000000
 -0.300000  0.400000  0.100000     24.000000
 -0.400000  0.500000  0.100000     12.000000
 -0.400000  0.400000  0.200000     24.000000
 -0.300000  0.400000  0.200000     24.000000
 -0.300000  0.500000  0.200000     12.000000

 Following cartesian coordinates:
            Coordinates               Weight
  0.000000  0.000000  0.000000      1.000000
 -0.027499  0.027499  0.027499      8.000000
 -0.054998  0.054998  0.054998      8.000000
 -0.082498  0.082498  0.082498      8.000000
 -0.109997  0.109997  0.109997      8.000000
 -0.137496  0.137496  0.137496      4.000000
  0.000000  0.000000  0.054998      6.000000
 -0.027499  0.027499  0.082498     24.000000
 -0.054998  0.054998  0.109997     24.000000
 -0.082498  0.082498  0.137496     24.000000
 -0.109997  0.109997  0.164995     24.000000
  0.137496 -0.137496 -0.082498     24.000000
  0.109997 -0.109997 -0.054998     24.000000
  0.082498 -0.082498 -0.027499     24.000000
  0.054998 -0.054998  0.000000     12.000000
  0.000000  0.000000  0.109997      6.000000
 -0.027499  0.027499  0.137496     24.000000
 -0.054998  0.054998  0.164995     24.000000
 -0.082498  0.082498  0.192494     24.000000
  0.164995 -0.164995 -0.054998     24.000000
  0.137496 -0.137496 -0.027499     24.000000
  0.109997 -0.109997  0.000000     12.000000
  0.000000  0.000000  0.164995      6.000000
 -0.027499  0.027499  0.192494     24.000000
 -0.054998  0.054998  0.219994     24.000000
  0.192494 -0.192494 -0.027499     24.000000
  0.164995 -0.164995  0.000000     12.000000
  0.000000  0.000000  0.219994      6.000000
 -0.027499  0.027499  0.247493     24.000000
  0.219994 -0.219994  0.000000     12.000000
  0.000000  0.000000  0.274992      3.000000
  0.000000  0.054998  0.109997     24.000000
 -0.027499  0.082498  0.137496     48.000000
 -0.054998  0.109997  0.164995     48.000000
  0.192494 -0.137496 -0.082498     24.000000
  0.000000  0.054998  0.164995     24.000000
 -0.027499  0.082498  0.192494     48.000000
  0.219994 -0.164995 -0.054998     48.000000
  0.192494 -0.137496 -0.027499     48.000000
  0.164995 -0.109997 -0.000000     24.000000
  0.000000  0.054998  0.219994     24.000000
  0.247493 -0.192494 -0.027499     48.000000
  0.219994 -0.164995  0.000000     24.000000
  0.274992 -0.219994 -0.000000     12.000000
  0.274992 -0.164995 -0.054998     24.000000
  0.247493 -0.137496 -0.027499     24.000000
  0.274992 -0.164995 -0.000000     12.000000

 SYSTEM =  Cu FCC
 POSCAR =  Copper  [FCC,FCC,cF4] (STD_PRIM doi:10.1

 Startparameter for this run:
   NWRITE =      2    write-flag & timer
   PREC   = accura    normal or accurate (medium, high low for compatibility)
   ISTART =      0    job   : 0-new  1-cont  2-samecut
   ICHARG =      2    charge: 1-file 2-atom 10-const
   ISPIN  =      1    spin polarized calculation?
   LNONCOLLINEAR =      F non collinear calculations
   LSORBIT =      F    spin-orbit coupling
   INIWAV =      1    electr: 0-lowe 1-rand  2-diag
   LASPH  =      F    aspherical Exc in radial PAW
 Electronic Relaxation 1
   ENCUT  =  520.0 eV  38.22 Ry    6.18 a.u.   4.78  4.78  4.78*2*pi/ulx,y,z
   ENINI  =  520.0     initial cutoff
   ENAUG  =  587.0 eV  augmentation charge cutoff
   NELM   =     60;   NELMIN=  2; NELMDL=  0     # of ELM steps
   EDIFF  = 0.1E-09   stopping-criterion for ELM
   LREAL  =      F    real-space projection
   NLSPLINE    = F    spline interpolate recip. space projectors
   LCOMPAT=      F    compatible to vasp.4.4
   GGA_COMPAT  = T    GGA compatible to vasp.4.4-vasp.4.6
   LMAXPAW     = -100 max onsite density
   LMAXMIX     =    2 max onsite mixed and CHGCAR
   VOSKOWN=      0    Vosko Wilk Nusair interpolation
   ROPT   =    0.00000
 Ionic relaxation
   EDIFFG = -.1E-04   stopping-criterion for IOM
   NSW    =    100    number of steps for IOM
   NBLOCK =      1;   KBLOCK =    100    inner block; outer block
   IBRION =      2    ionic relax: 0-MD 1-quasi-New 2-CG
   NFREE  =      1    steps in history (QN), initial steepest desc. (CG)
   ISIF   =      3    stress and relaxation
   IWAVPR =     11    prediction:  0-non 1-charg 2-wave 3-comb
   ISYM   =      2    0-nonsym 1-usesym 2-fastsym
   LCORR  =      T    Harris-Foulkes like correction to forces

   POTIM  = 0.5000    time-step for ionic-motion
   TEIN   =    0.0    initial temperature
   TEBEG  =    0.0;   TEEND  =   0.0 temperature during run
   SMASS  =  -3.00    Nose mass-parameter (am)
   estimated Nose-frequenzy (Omega)   =  0.10E-29 period in steps = 0.13E+47 mass=  -0.151E-27a.u.
   SCALEE = 1.0000    scale energy and forces
   NPACO  =    256;   APACO  = 10.0  distance and # of slots for P.C.
   PSTRESS=    0.0 pullay stress

  Mass of Ions in am
   POMASS =  63.55
  Ionic Valenz
   ZVAL   =  11.00
  Atomic Wigner-Seitz radii
  virtual crystal weights
   VCA    =   1.00
   NELECT =      11.0000    total number of electrons
   NUPDOWN=      -1.0000    fix difference up-down

 DOS related values:
   EMIN   =  10.00;   EMAX   =-10.00  energy-range for DOS
   EFERMI =   0.00;   METHOD = LEGACY
   ISMEAR =     0;   SIGMA  =   0.03  broadening in eV -4-tet -1-fermi 0-gaus

 Electronic relaxation 2 (details)
   IALGO  =     38    algorithm
[...]
   0.00000000  0.00000000  0.00000000

 k-point   1 :   0.0000 0.0000 0.0000  plane waves:     331
 k-point   2 :   0.1000 0.0000 0.0000  plane waves:     329
 k-point   3 :   0.2000 0.0000 0.0000  plane waves:     320
 k-point   4 :   0.3000 0.0000 0.0000  plane waves:     317
 k-point   5 :   0.4000 0.0000 0.0000  plane waves:     323
 k-point   6 :   0.5000 0.0000 0.0000  plane waves:     332
 k-point   7 :   0.1000 0.1000 0.0000  plane waves:     327
 k-point   8 :   0.2000 0.1000 0.0000  plane waves:     321
 k-point   9 :   0.3000 0.1000 0.0000  plane waves:     322
 k-point  10 :   0.4000 0.1000 0.0000  plane waves:     328
 k-point  11 :   0.5000 0.1000 0.0000  plane waves:     329
 k-point  12 :  -0.4000 0.1000 0.0000  plane waves:     326
 k-point  13 :  -0.3000 0.1000 0.0000  plane waves:     320
 k-point  14 :  -0.2000 0.1000 0.0000  plane waves:     320
 k-point  15 :  -0.1000 0.1000 0.0000  plane waves:     325
 k-point  16 :   0.2000 0.2000 0.0000  plane waves:     323
 k-point  17 :   0.3000 0.2000 0.0000  plane waves:     322
 k-point  18 :   0.4000 0.2000 0.0000  plane waves:     324
 k-point  19 :   0.5000 0.2000 0.0000  plane waves:     323
 k-point  20 :  -0.4000 0.2000 0.0000  plane waves:     328
 k-point  21 :  -0.3000 0.2000 0.0000  plane waves:     325
 k-point  22 :  -0.2000 0.2000 0.0000  plane waves:     323
 k-point  23 :   0.3000 0.3000 0.0000  plane waves:     323
 k-point  24 :   0.4000 0.3000 0.0000  plane waves:     327
 k-point  25 :   0.5000 0.3000 0.0000  plane waves:     326
 k-point  26 :  -0.4000 0.3000 0.0000  plane waves:     324
 k-point  27 :  -0.3000 0.3000 0.0000  plane waves:     329
 k-point  28 :   0.4000 0.4000 0.0000  plane waves:     322
 k-point  29 :   0.5000 0.4000 0.0000  plane waves:     328
 k-point  30 :  -0.4000 0.4000 0.0000  plane waves:     322
 k-point  31 :   0.5000 0.5000 0.0000  plane waves:     326
 k-point  32 :   0.3000 0.2000 0.1000  plane waves:     320
 k-point  33 :   0.4000 0.2000 0.1000  plane waves:     321
 k-point  34 :   0.5000 0.2000 0.1000  plane waves:     323
 k-point  35 :  -0.4000 0.2000 0.1000  plane waves:     326
 k-point  36 :   0.4000 0.3000 0.1000  plane waves:     323
 k-point  37 :   0.5000 0.3000 0.1000  plane waves:     324
 k-point  38 :  -0.4000 0.3000 0.1000  plane waves:     322
 k-point  39 :  -0.3000 0.3000 0.1000  plane waves:     324
 k-point  40 :  -0.2000 0.3000 0.1000  plane waves:     324
 k-point  41 :   0.5000 0.4000 0.1000  plane waves:     326
 k-point  42 :  -0.4000 0.4000 0.1000  plane waves:     327
 k-point  43 :  -0.3000 0.4000 0.1000  plane waves:     325
 k-point  44 :  -0.4000 0.5000 0.1000  plane waves:     324
 k-point  45 :  -0.4000 0.4000 0.2000  plane waves:     325
 k-point  46 :  -0.3000 0.4000 0.2000  plane waves:     324
 k-point  47 :  -0.3000 0.5000 0.2000  plane waves:     322

 maximum and minimum number of plane-waves per node :       332      317

 maximum number of plane-waves:       332
 maximum index in each direction:
   IXMAX=    5   IYMAX=    4   IZMAX=    4
   IXMIN=   -5   IYMIN=   -5   IZMIN=   -4

 serial   3D FFT for wavefunctions
 parallel 3D FFT for charge:
    minimum data exchange during FFTs selected (reduces bandwidth)

 Broyden mixing: mesh for mixing (old mesh)
   NGX =  9   NGY =  9   NGZ =  9
  (NGX  = 40   NGY  = 40   NGZ  = 40)
  gives a total of    729 points

 initial charge density was supplied:
 charge density of overlapping atoms calculated
 number of electron      11.0000000 magnetization
 keeping initial charge density in first step

 Maximum index for augmentation-charges         4713 (set IRDMAX)

 First call to EWALD:  gamma=   0.774
 Maximum number of real-space cells 3x 3x 3
 Maximum number of reciprocal cells 3x 3x 3

--------------------------------------- Ionic step        1  -------------------------------------------

--------------------------------------- Iteration      1(   1)  ---------------------------------------

 eigenvalue-minimisations  :  1276
 total energy-change (2. order) : 0.3943891E+02  (-0.5352172E+03)
 number of electron      11.0000000 magnetization
 augmentation part       11.0000000 magnetization

 Free energy of the ion-electron system (eV)
  alpha Z        PSCENC =        60.83200522
  Ewald energy   TEWEN  =     -1098.39284620
  -Hartree energ DENC   =      -365.41074940
  -exchange      EXHF   =         0.00000000
  -V(xc)+E(xc)   XCENC  =        45.73587495
  PAW double counting   =      1228.20665988    -1334.04846713
  entropy T*S    EENTRO =        -0.00040518
  eigenvalues    EBANDS =       111.53978762
  atomic energy  EATOM  =      1390.97705399
  Solvation  Ediel_sol  =         0.00000000
  free energy    TOTEN  =        39.43891375 eV

  energy without entropy =       39.43931894  energy(sigma->0) =       39.43911635

[...]

 eigenvalue-minimisations  :  1168
 total energy-change (2. order) :-0.4277315E+02  (-0.3905878E+02)
 number of electron      11.0000000 magnetization
 augmentation part       11.0000000 magnetization

[...]

 Broyden mixing:
  rms(total) = 0.76299E+00    rms(broyden)= 0.76298E+00
  rms(prec ) = 0.29011E+01
  weight for this iteration     100.00

[...]

 eigenvalues of (default mixing * dielectric matrix)
  average eigenvalue GAMMA=   0.6562
  0.6562

[...]

 average (electrostatic) potential at core
  the test charge radii are     0.9430
  (the norm of the test charge is              1.0000)
       1 -63.8727

 E-fermi :   7.2565     XC(G=0): -12.6227     alpha+bet :-13.1877

 Fermi energy:         7.2564977876

 k-point     1 :       0.0000    0.0000    0.0000
  band No.  band energies     occupation
      1      -1.8492      2.00000
      2       4.3965      2.00000
      3       4.3965      2.00000
      4       4.3965      2.00000
      5       5.2019      2.00000
      6       5.2019      2.00000
      7      29.8191      0.00000
      8      32.3260      0.00000
      9      32.3260      0.00000
     10      32.3260      0.00000
     11      34.8048      0.00000
     12      34.8048      0.00000

[...]

 soft charge-density along one line, spin component           1
         0         1         2         3         4         5         6         7         8         9
 total charge-density along one line

------------------------ aborting loop because EDIFF is reached ----------------------------------------

  FORCE on cell =-STRESS in cart. coord.  units (eV):
  Direction    XX          YY          ZZ          XY          YZ          ZX
  Alpha Z    60.83201    60.83201    60.83201
  Ewald    -366.13096  -366.13096  -366.13096     0.00000     0.00000    -0.00000
  Hartree   114.08594   114.08594   114.08594     0.00000     0.00000     0.00000
  E(xc)     -64.30910   -64.30910   -64.30910    -0.00000    -0.00000    -0.00000
  Local      92.24731    92.24731    92.24731     0.00005     0.00005     0.00005
  n-local   -21.08157   -20.10220   -22.58342     1.49127    -1.65650     1.07999
  augment    94.82722    94.82722    94.82722    -0.00003    -0.00003    -0.00003
  Kinetic    88.68803    88.28077    92.15022    -1.95624     2.68406    -2.17772
  Fock        0.00000     0.00000     0.00000     0.00000     0.00000     0.00000
  Total       0.00302     0.00302     0.00302    -0.00000     0.00000     0.00000
  in kB       0.40275     0.40275     0.40275    -0.00000     0.00000     0.00000

 VOLUME and BASIS-vectors are now :
  energy-cutoff  :      520.00
  volume of cell :       12.02
      direct lattice vectors                 reciprocal lattice vectors
     0.000000000  1.818235077  1.818235077    -0.274991945  0.274991945  0.274991945
     1.818235077  0.000000000  1.818235077     0.274991945 -0.274991945  0.274991945
     1.818235077  1.818235077  0.000000000     0.274991945  0.274991945 -0.274991945

[...]

 FORCES acting on ions
    electron-ion (+dipol)            ewald-force                    non-local-force                 convergence-correction
   -.155E-14 -.139E-13 -.814E-14   0.105E-15 -.207E-14 -.573E-14   0.000E+00 0.162E-26 -.162E-26   0.102E-13 0.566E-14 -.967E-14
   -.155E-14 -.139E-13 -.814E-14   0.105E-15 -.207E-14 -.573E-14   0.000E+00 0.162E-26 -.162E-26   0.102E-13 0.566E-14 -.967E-14

 POSITION                                       TOTAL-FORCE (eV/Angst)
      0.00000      0.00000      0.00000        -0.000000      0.000000      0.000000
    total drift:                                0.000000     -0.000000     -0.000000

  FREE ENERGIE OF THE ION-ELECTRON SYSTEM (eV)
  free  energy   TOTEN  =        -3.71350667 eV

  energy  without entropy=       -3.71315709  energy(sigma->0) =       -3.71333188

 stress matrix after NEB project (eV)
      0.00302     -0.00000      0.00000
     -0.00000      0.00302     -0.00000
      0.00000      0.00000      0.00302
  FORCES: max atom, RMS     0.000000    0.000000
  FORCE total and by dimension    0.000000    0.000000
  Stress total and by dimension    0.005234    0.003022

[...]

 d Force = 0.0000000E+00[ 0.000E+00, 0.000E+00]  d Energy =-0.5286711E-07 0.529E-07
 d Force = 0.0000000E+00[ 0.000E+00, 0.000E+00]  d Ewald  =-0.1601144E+00 0.160E+00

 stress matrix after NEB project (eV)
     -0.00154      0.00000     -0.00000
     -0.00000     -0.00154     -0.00000
      0.00000      0.00000     -0.00154
  FORCES: max atom, RMS     0.000000    0.000000
  FORCE total and by dimension    0.000000    0.000000
  Stress total and by dimension    0.002676    0.001545
 Steepest descent step on ions:
 trial-energy change:    0.000000  1 .order   -0.000000   -0.000001    0.000001
  (g-gl).g = 0.132E-05      g.g   = 0.132E-05  gl.gl    = 0.000E+00
 g(Force)  = 0.117E-62   g(Stress)= 0.132E-05 ortho     = 0.000E+00
 gamma     =   0.00000
 trial     =   1.00000
 opt step  =   0.39248  (harmonic =   0.66174) maximal distance =0.00000000
 next E    =    -3.713507   (d E  =  -0.00000)

[...]

 eigenvalue-minimisations  :   576
 total energy-change (2. order) : 0.7075869E-09  ( 0.3838696E-14)
 number of electron      10.9999996 magnetization
 augmentation part        7.0143190 magnetization

[...]

 d Force = 0.0000000E+00[ 0.000E+00, 0.000E+00]  d Energy = 0.2687996E-06-0.269E-06
 d Force = 0.0000000E+00[ 0.000E+00, 0.000E+00]  d Ewald  = 0.9726696E-01-0.973E-01

[...]

--------------------------------------- Ionic step        4  -------------------------------------------

[...]

 eigenvalue-minimisations  :   576
 total energy-change (2. order) :-0.2119123E-09  ( 0.1583482E-13)
 number of electron      10.9999995 magnetization
 augmentation part        7.0143449 magnetization

[...]

 Broyden mixing:
  rms(total) = 0.52551E-10    rms(broyden)= 0.44567E-10
  rms(prec ) = 0.10653E-09
  weight for this iteration     100.00
  WARNING: grid for Broyden might be to small

[...]

 Broyden mixing:
  rms(total) = 0.70022E-10    rms(broyden)= 0.69373E-10
  rms(prec ) = 0.23427E-09
  weight for this iteration     100.00

[...]

 eigenvalue-minimisations  :   576
 total energy-change (2. order) :-0.2551133E-09  (-0.2526201E-13)
 number of electron      10.9999995 magnetization
 augmentation part        7.0143449 magnetization

[...]

 eigenvalue-minimisations  :   568
 total energy-change (2. order) : 0.2874003E-09  ( 0.3046894E-14)
 number of electron      10.9999995 magnetization
 augmentation part        7.0143449 magnetization

[...]

 Broyden mixing:
  rms(total) = 0.15606E-10    rms(broyden)= 0.13638E-10
  rms(prec ) = 0.43932E-10
  weight for this iteration     100.00
  WARNING: grid for Broyden might be to small

 eigenvalues of (default mixing * dielectric matrix)
  average eigenvalue GAMMA=   1.4182
  3.0543  3.0543  2.6201  2.5856  2.5856  2.3867  1.8476  1.8476  1.8592  1.0706
  1.0706  1.0416  1.0416  0.9893  0.9893  0.8451  0.8451  0.8803  0.8803  0.7421
  0.7421  0.7848  0.6262  0.4253  0.6400

[...]

--------------------------------------- Iteration      4(  27)  ---------------------------------------

 eigenvalue-minimisations  :   568
 total energy-change (2. order) : 0.4615686E-10  (-0.2583831E-13)
 number of electron      10.9999995 magnetization
 augmentation part        7.0143449 magnetization

 Free energy of the ion-electron system (eV)
  alpha Z        PSCENC =        60.81441780
  Ewald energy   TEWEN  =     -1098.28698219
  -Hartree energ DENC   =      -342.31779596
  -exchange      EXHF   =         0.00000000
  -V(xc)+E(xc)   XCENC  =        44.63938130
  PAW double counting   =      1310.79285315    -1418.58480531
  entropy T*S    EENTRO =        -0.00034958
  eigenvalues    EBANDS =        48.25271994
  atomic energy  EATOM  =      1390.97705399
  Solvation  Ediel_sol  =         0.00000000
  free energy    TOTEN  =        -3.71350686 eV

  energy without entropy =       -3.71315728  energy(sigma->0) =       -3.71333207

 average (electrostatic) potential at core
  the test charge radii are     0.9430
  (the norm of the test charge is              1.0000)
       1 -63.8756

 E-fermi :   7.2532     XC(G=0): -12.6210     alpha+bet :-13.1839

 Fermi energy:         7.2532273700

[...]

 k-point    47 :      -0.3000    0.5000    0.2000
  band No.  band energies     occupation
      1       3.2273      2.00000
      2       3.5857      2.00000
      3       4.2936      2.00000
      4       5.2353      2.00000
      5       5.8858      2.00000
      6      12.1710      0.00000
      7      14.9425      0.00000
      8      15.1795      0.00000
      9      16.6101      0.00000
     10      32.5213      0.00000
     11      34.8788      0.00000
     12      38.3476      0.00000

 soft charge-density along one line, spin component           1
         0         1         2         3         4         5         6         7         8         9
 total charge-density along one line

------------------------ aborting loop because EDIFF is reached ----------------------------------------

  FORCE on cell =-STRESS in cart. coord.  units (eV):
  Direction    XX          YY          ZZ          XY          YZ          ZX
  Alpha Z    60.81442    60.81442    60.81442
  Ewald    -366.09567  -366.09567  -366.09567     0.00000     0.00000    -0.00000
  Hartree   114.10593   114.10593   114.10593     0.00000     0.00000     0.00000
  E(xc)     -64.30855   -64.30855   -64.30855    -0.00000    -0.00000    -0.00000
  Local      92.21304    92.21304    92.21304     0.00005     0.00005     0.00005
  n-local   -21.08627   -20.10707   -22.58798     1.49105    -1.65630     1.07992
  augment    94.82702    94.82702    94.82702    -0.00003    -0.00003    -0.00003
  Kinetic    88.68620    88.27906    92.14750    -1.95583     2.68346    -2.17716
  Fock        0.00000     0.00000     0.00000     0.00000     0.00000     0.00000
  Total       0.00001     0.00001     0.00001     0.00000    -0.00000     0.00000
  in kB       0.00082     0.00082     0.00082     0.00000    -0.00000     0.00000

 VOLUME and BASIS-vectors are now :
  energy-cutoff  :      520.00
  volume of cell :       12.03
      direct lattice vectors                 reciprocal lattice vectors
     0.000000000  1.818410337  1.818410337    -0.274965441  0.274965441  0.274965441
     1.818410337 -0.000000000  1.818410337     0.274965441 -0.274965441  0.274965441
     1.818410337  1.818410337 -0.000000000     0.274965441  0.274965441 -0.274965441

  length of vectors
     2.571620560  2.571620560  2.571620560     0.476254114  0.476254114  0.476254114

 FORCES acting on ions
    electron-ion (+dipol)            ewald-force                    non-local-force                 convergence-correction
   -.599E-14 -.453E-14 -.891E-14   -.176E-14 0.198E-14 -.327E-14   0.162E-26 0.162E-26 0.161E-26   -.201E-13 0.171E-13 -.114E-14
   -.599E-14 -.453E-14 -.891E-14   -.176E-14 0.198E-14 -.327E-14   0.162E-26 0.162E-26 0.161E-26   -.201E-13 0.171E-13 -.114E-14

 POSITION                                       TOTAL-FORCE (eV/Angst)
     -0.00000      0.00000      0.00000        -0.000000     -0.000000     -0.000000
    total drift:                               -0.000000      0.000000     -0.000000

  FREE ENERGIE OF THE ION-ELECTRON SYSTEM (eV)
  free  energy   TOTEN  =        -3.71350686 eV

  energy  without entropy=       -3.71315728  energy(sigma->0) =       -3.71333207

 d Force = 0.0000000E+00[ 0.000E+00, 0.000E+00]  d Energy =-0.2766251E-07 0.277E-07
 d Force = 0.0000000E+00[ 0.000E+00, 0.000E+00]  d Ewald  =-0.4301657E-01 0.430E-01

 stress matrix after NEB project (eV)
      0.00001     -0.00000      0.00000
      0.00000      0.00001      0.00000
      0.00000     -0.00000      0.00001
  FORCES: max atom, RMS     0.000000    0.000000
  FORCE total and by dimension    0.000000    0.000000
  Stress total and by dimension    0.000011    0.000006

 reached required accuracy - stopping structural energy minimisation