 vasp.6.4.2 20Jul23 (build Oct 16 2024 22:45:58) complex

 executed on             LinuxIFC date 2025.01.29  08:14:33

 INCAR:
   SYSTEM = Si FCC
   PREC = Accurate
   EDIFF = 1E-8
   ISMEAR = 0
   SIGMA = 0.03
   GGA = PE
   ENCUT = 520
   NSW = 100
   IBRION = 2
   ISIF = 3
   LWAVE = .FALSE.
   LCHARG = .FALSE.

 POTCAR:    PAW_PBE Si 05Jan2001
 POTCAR:    PAW_PBE Si 05Jan2001
   VRHFIN =Si: s2p2

   TITEL  = PAW_PBE Si 05Jan2001
   POMASS =   28.085; ZVAL   =    4.000    mass and valenz
   ENMAX  =  245.345; ENMIN  =  184.009 eV

  PAW_PBE Si 05Jan2001                  :

 POSCAR: Si [FCC,FCC,cF8]
  positions in direct lattice
 exchange correlation table for  LEXCH =        8
   RHO(1)=    0.500       N(1)  =     2000
   RHO(2)=  100.500       N(2)  =     4000

 VTST: version 4.1, (05/19/21)

 CHAIN: initializing optimizer

 OPT: Using VASP Conjugate-Gradient optimizer
 CHAIN: Read ICHAIN            0

 POSCAR: Si [FCC,FCC,cF8]
  positions in direct lattice

 ion  position               nearest neighbor table
   1  0.000  0.000  0.000-   2 2.35   2 2.35   2 2.35   2 2.35
   2  0.250  0.250  0.250-   1 2.35   1 2.35   1 2.35   1 2.35

  LATTYP: Found a face centered cubic cell.
 ALAT       =     5.4305000000

  Lattice vectors:

 A1 = (   0.0000000000,   2.7152500000,   2.7152500000)
 A2 = (   2.7152500000,   0.0000000000,   2.7152500000)
 A3 = (   2.7152500000,   2.7152500000,   0.0000000000)

Analysis of symmetry for initial positions (statically):
 Subroutine PRICEL returns:
 Original cell was already a primitive cell.

 Routine SETGRP: Setting up the symmetry group for a
 face centered cubic supercell.

 Subroutine GETGRP returns: Found 48 space group operations
 (whereof 24 operations were pure point group operations)
 out of a pool of 48 trial point group operations.

The static configuration has the point symmetry T_d .
 The point group associated with its full space group is O_h .

Analysis of symmetry for dynamics (positions and initial velocities):
 Subroutine PRICEL returns:
 Original cell was already a primitive cell.

 Routine SETGRP: Setting up the symmetry group for a
 face centered cubic supercell.

 Subroutine GETGRP returns: Found 48 space group operations
 (whereof 24 operations were pure point group operations)
 out of a pool of 48 trial point group operations.

The dynamic configuration has the point symmetry T_d .
 The point group associated with its full space group is O_h .

 Subroutine INISYM returns: Found 48 space group operations
 (whereof 24 operations are pure point group operations),
 and found     1 'primitive' translations

                                     Primitive cell

  volume of cell :      40.0368

  direct lattice vectors                    reciprocal lattice vectors
     0.000000000  2.715250000  2.715250000    -0.184145106  0.184145106  0.184145106
     2.715250000  0.000000000  2.715250000     0.184145106 -0.184145106  0.184145106
     2.715250000  2.715250000  0.000000000     0.184145106  0.184145106 -0.184145106

  length of vectors
     3.839943375  3.839943375  3.839943375     0.318948680  0.318948680  0.318948680

  position of ions in fractional coordinates (direct lattice)
     0.000000000  0.000000000  0.000000000
     0.250000000  0.250000000  0.250000000

  ion indices of the primitive-cell ions
   primitive index   ion index
                 1           1
                 2           2

 KPOINTS: KPOINTS

Automatic generation of k-mesh.
 Grid dimensions read from file:
 generate k-points for:   10   10   10

 Generating k-lattice:

  Cartesian coordinates                     Fractional coordinates (reciprocal lattice)
    -0.018414511  0.018414511  0.018414511     0.100000000  0.000000000  0.000000000
     0.018414511 -0.018414511  0.018414511     0.000000000  0.100000000  0.000000000
     0.018414511  0.018414511 -0.018414511     0.000000000  0.000000000  0.100000000

  Length of vectors
     0.031894868  0.031894868  0.031894868

  Shift w.r.t. Gamma in fractional coordinates (k-lattice)
     0.000000000  0.000000000  0.000000000

 Subroutine IBZKPT returns following result:

 Found     47 irreducible k-points:

 Following reciprocal coordinates:
            Coordinates               Weight
  0.000000  0.000000  0.000000      1.000000
  0.100000  0.000000  0.000000      8.000000
  0.200000  0.000000  0.000000      8.000000
  0.300000  0.000000  0.000000      8.000000
  0.400000  0.000000  0.000000      8.000000
  0.500000  0.000000  0.000000      4.000000
  0.100000  0.100000  0.000000      6.000000
  0.200000  0.100000  0.000000     24.000000
  0.300000  0.100000  0.000000     24.000000
  0.400000  0.100000  0.000000     24.000000
  0.500000  0.100000  0.000000     24.000000
 -0.400000  0.100000  0.000000     24.000000
 -0.300000  0.100000  0.000000     24.000000
 -0.200000  0.100000  0.000000     24.000000
 -0.100000  0.100000  0.000000     12.000000
  0.200000  0.200000  0.000000      6.000000
  0.300000  0.200000  0.000000     24.000000
  0.400000  0.200000  0.000000     24.000000
  0.500000  0.200000  0.000000     24.000000
 -0.400000  0.200000  0.000000     24.000000
 -0.300000  0.200000  0.000000     24.000000
 -0.200000  0.200000  0.000000     12.000000
  0.300000  0.300000  0.000000      6.000000
  0.400000  0.300000  0.000000     24.000000
  0.500000  0.300000  0.000000     24.000000
 -0.400000  0.300000  0.000000     24.000000
 -0.300000  0.300000  0.000000     12.000000
  0.400000  0.400000  0.000000      6.000000
  0.500000  0.400000  0.000000     24.000000
 -0.400000  0.400000  0.000000     12.000000
  0.500000  0.500000  0.000000      3.000000
  0.300000  0.200000  0.100000     24.000000
  0.400000  0.200000  0.100000     48.000000
  0.500000  0.200000  0.100000     48.000000
 -0.400000  0.200000  0.100000     24.000000
  0.400000  0.300000  0.100000     24.000000
  0.500000  0.300000  0.100000     48.000000
 -0.400000  0.300000  0.100000     48.000000
 -0.300000  0.300000  0.100000     48.000000
 -0.200000  0.300000  0.100000     24.000000
  0.500000  0.400000  0.100000     24.000000
 -0.400000  0.400000  0.100000     48.000000
 -0.300000  0.400000  0.100000     24.000000
 -0.400000  0.500000  0.100000     12.000000
 -0.400000  0.400000  0.200000     24.000000
 -0.300000  0.400000  0.200000     24.000000
 -0.300000  0.500000  0.200000     12.000000

 Following cartesian coordinates:
            Coordinates               Weight
  0.000000  0.000000  0.000000      1.000000
 -0.018415  0.018415  0.018415      8.000000
 -0.036829  0.036829  0.036829      8.000000
 -0.055244  0.055244  0.055244      8.000000
 -0.073658  0.073658  0.073658      8.000000
 -0.092073  0.092073  0.092073      4.000000
  0.000000  0.000000  0.036829      6.000000
 -0.018415  0.018415  0.055244     24.000000
 -0.036829  0.036829  0.073658     24.000000
 -0.055244  0.055244  0.092073     24.000000
 -0.073658  0.073658  0.110487     24.000000
  0.092073 -0.092073 -0.055244     24.000000
  0.073658 -0.073658 -0.036829     24.000000
  0.055244 -0.055244 -0.018415     24.000000
  0.036829 -0.036829  0.000000     12.000000
  0.000000  0.000000  0.073658      6.000000
 -0.018415  0.018415  0.092073     24.000000
 -0.036829  0.036829  0.110487     24.000000
 -0.055244  0.055244  0.128902     24.000000
  0.110487 -0.110487 -0.036829     24.000000
  0.092073 -0.092073 -0.018415     24.000000
  0.073658 -0.073658  0.000000     12.000000
  0.000000  0.000000  0.110487      6.000000
 -0.018415  0.018415  0.128902     24.000000
 -0.036829  0.036829  0.147316     24.000000
  0.128902 -0.128902 -0.018415     24.000000
  0.110487 -0.110487  0.000000     12.000000
  0.000000  0.000000  0.147316      6.000000
 -0.018415  0.018415  0.165731     24.000000
  0.147316 -0.147316  0.000000     12.000000
  0.000000  0.000000  0.184145      3.000000
  0.000000  0.036829  0.073658     24.000000
 -0.018415  0.055244  0.092073     48.000000
 -0.036829  0.073658  0.110487     48.000000
  0.128902 -0.092073 -0.055244     24.000000
 -0.000000  0.036829  0.110487     24.000000
 -0.018415  0.055244  0.128902     48.000000
  0.147316 -0.110487 -0.036829     48.000000
  0.128902 -0.092073 -0.018415     48.000000
  0.110487 -0.073658 -0.000000     24.000000
  0.000000  0.036829  0.147316     24.000000
  0.165731 -0.128902 -0.018415     48.000000
  0.147316 -0.110487  0.000000     24.000000
  0.184145 -0.147316 -0.000000     12.000000
  0.184145 -0.110487 -0.036829     24.000000
  0.165731 -0.092073 -0.018415     24.000000
  0.184145 -0.110487  0.000000     12.000000

 SYSTEM =  Si FCC
 POSCAR =  Si [FCC,FCC,cF8]

 Startparameter for this run:
   NWRITE =      2    write-flag & timer
   PREC   = accura    normal or accurate (medium, high low for compatibility)
   ISTART =      0    job   : 0-new  1-cont  2-samecut
   ICHARG =      2    charge: 1-file 2-atom 10-const
   ISPIN  =      1    spin polarized calculation?
   LNONCOLLINEAR =      F non collinear calculations
   LSORBIT =      F    spin-orbit coupling
   INIWAV =      1    electr: 0-lowe 1-rand  2-diag
   LASPH  =      F    aspherical Exc in radial PAW
 Electronic Relaxation 1
   ENCUT  =  520.0 eV  38.22 Ry    6.18 a.u.   7.14  7.14  7.14*2*pi/ulx,y,z
   ENINI  =  520.0     initial cutoff
   ENAUG  =  322.1 eV  augmentation charge cutoff
   NELM   =     60;   NELMIN=  2; NELMDL= -5     # of ELM steps
   EDIFF  = 0.1E-07   stopping-criterion for ELM
   LREAL  =      F    real-space projection
   NLSPLINE    = F    spline interpolate recip. space projectors
   LCOMPAT=      F    compatible to vasp.4.4
   GGA_COMPAT  = T    GGA compatible to vasp.4.4-vasp.4.6
   LMAXPAW     = -100 max onsite density
   LMAXMIX     =    2 max onsite mixed and CHGCAR
   VOSKOWN=      0    Vosko Wilk Nusair interpolation
   ROPT   =    0.00000
 Ionic relaxation
   EDIFFG = 0.1E-06   stopping-criterion for IOM
   NSW    =    100    number of steps for IOM
   NBLOCK =      1;   KBLOCK =    100    inner block; outer block
   IBRION =      2    ionic relax: 0-MD 1-quasi-New 2-CG
   NFREE  =      1    steps in history (QN), initial steepest desc. (CG)
   ISIF   =      3    stress and relaxation
   IWAVPR =     11    prediction:  0-non 1-charg 2-wave 3-comb
   ISYM   =      2    0-nonsym 1-usesym 2-fastsym
   LCORR  =      T    Harris-Foulkes like correction to forces

   POTIM  = 0.5000    time-step for ionic-motion
   TEIN   =    0.0    initial temperature
   TEBEG  =    0.0;   TEEND  =   0.0 temperature during run
   SMASS  =  -3.00    Nose mass-parameter (am)
   estimated Nose-frequenzy (Omega)   =  0.10E-29 period in steps = 0.13E+47 mass=  -0.337E-27a.u.
   SCALEE = 1.0000    scale energy and forces
   NPACO  =    256;   APACO  = 10.0  distance and # of slots for P.C.
   PSTRESS=    0.0 pullay stress

  Mass of Ions in am
   POMASS =  28.09
  Ionic Valenz
   ZVAL   =   4.00
  Atomic Wigner-Seitz radii
  virtual crystal weights
   VCA    =   1.00
   NELECT =       8.0000    total number of electrons
   NUPDOWN=      -1.0000    fix difference up-down

 DOS related values:
   EMIN   =  10.00;   EMAX   =-10.00  energy-range for DOS
   EFERMI =   0.00;   METHOD = LEGACY
[...]
   0.50000000  0.40000000  0.00000000       0.024
  -0.40000000  0.40000000  0.00000000       0.012
   0.50000000  0.50000000  0.00000000       0.003
   0.30000000  0.20000000  0.10000000       0.024
   0.40000000  0.20000000  0.10000000       0.048
   0.50000000  0.20000000  0.10000000       0.048
  -0.40000000  0.20000000  0.10000000       0.024
   0.40000000  0.30000000  0.10000000       0.024
   0.50000000  0.30000000  0.10000000       0.048
  -0.40000000  0.30000000  0.10000000       0.048
  -0.30000000  0.30000000  0.10000000       0.048
  -0.20000000  0.30000000  0.10000000       0.024
   0.50000000  0.40000000  0.10000000       0.024
  -0.40000000  0.40000000  0.10000000       0.048
  -0.30000000  0.40000000  0.10000000       0.024
  -0.40000000  0.50000000  0.10000000       0.012
  -0.40000000  0.40000000  0.20000000       0.024
  -0.30000000  0.40000000  0.20000000       0.024
  -0.30000000  0.50000000  0.20000000       0.012

 position of ions in fractional coordinates (direct lattice)
   0.00000000  0.00000000  0.00000000
   0.25000000  0.25000000  0.25000000

 position of ions in cartesian coordinates  (Angst):
   0.00000000  0.00000000  0.00000000
   1.35762500  1.35762500  1.35762500

 k-point   1 :   0.0000 0.0000 0.0000  plane waves:    1067
 k-point   2 :   0.1000 0.0000 0.0000  plane waves:    1067
 k-point   3 :   0.2000 0.0000 0.0000  plane waves:    1077
 k-point   4 :   0.3000 0.0000 0.0000  plane waves:    1083
 k-point   5 :   0.4000 0.0000 0.0000  plane waves:    1083
 k-point   6 :   0.5000 0.0000 0.0000  plane waves:    1068
 k-point   7 :   0.1000 0.1000 0.0000  plane waves:    1074
 k-point   8 :   0.2000 0.1000 0.0000  plane waves:    1062
 k-point   9 :   0.3000 0.1000 0.0000  plane waves:    1082
 k-point  10 :   0.4000 0.1000 0.0000  plane waves:    1080
 k-point  11 :   0.5000 0.1000 0.0000  plane waves:    1086
 k-point  12 :  -0.4000 0.1000 0.0000  plane waves:    1082
 k-point  13 :  -0.3000 0.1000 0.0000  plane waves:    1073
 k-point  14 :  -0.2000 0.1000 0.0000  plane waves:    1073
 k-point  15 :  -0.1000 0.1000 0.0000  plane waves:    1069
 k-point  16 :   0.2000 0.2000 0.0000  plane waves:    1070
 k-point  17 :   0.3000 0.2000 0.0000  plane waves:    1073
 k-point  18 :   0.4000 0.2000 0.0000  plane waves:    1078
 k-point  19 :   0.5000 0.2000 0.0000  plane waves:    1086
 k-point  20 :  -0.4000 0.2000 0.0000  plane waves:    1080
 k-point  21 :  -0.3000 0.2000 0.0000  plane waves:    1076
 k-point  22 :  -0.2000 0.2000 0.0000  plane waves:    1079
 k-point  23 :   0.3000 0.3000 0.0000  plane waves:    1066
 k-point  24 :   0.4000 0.3000 0.0000  plane waves:    1065
 k-point  25 :   0.5000 0.3000 0.0000  plane waves:    1074
 k-point  26 :  -0.4000 0.3000 0.0000  plane waves:    1091
 k-point  27 :  -0.3000 0.3000 0.0000  plane waves:    1081
 k-point  28 :   0.4000 0.4000 0.0000  plane waves:    1082
 k-point  29 :   0.5000 0.4000 0.0000  plane waves:    1080
 k-point  30 :  -0.4000 0.4000 0.0000  plane waves:    1091
 k-point  31 :   0.5000 0.5000 0.0000  plane waves:    1090
 k-point  32 :   0.3000 0.2000 0.1000  plane waves:    1068
 k-point  33 :   0.4000 0.2000 0.1000  plane waves:    1078
 k-point  34 :   0.5000 0.2000 0.1000  plane waves:    1075
 k-point  35 :  -0.4000 0.2000 0.1000  plane waves:    1084
 k-point  36 :   0.4000 0.3000 0.1000  plane waves:    1068
 k-point  37 :   0.5000 0.3000 0.1000  plane waves:    1076
 k-point  38 :  -0.4000 0.3000 0.1000  plane waves:    1085
 k-point  39 :  -0.3000 0.3000 0.1000  plane waves:    1084
 k-point  40 :  -0.2000 0.3000 0.1000  plane waves:    1073
 k-point  41 :   0.5000 0.4000 0.1000  plane waves:    1077
 k-point  42 :  -0.4000 0.4000 0.1000  plane waves:    1080
 k-point  43 :  -0.3000 0.4000 0.1000  plane waves:    1086
 k-point  44 :  -0.4000 0.5000 0.1000  plane waves:    1084
 k-point  45 :  -0.4000 0.4000 0.2000  plane waves:    1078
 k-point  46 :  -0.3000 0.4000 0.2000  plane waves:    1082
 k-point  47 :  -0.3000 0.5000 0.2000  plane waves:    1074

 maximum and minimum number of plane-waves per node :      1091     1062

 maximum number of plane-waves:      1091
 maximum index in each direction:
   IXMAX=    7   IYMAX=    7   IZMAX=    7
   IXMIN=   -7   IYMIN=   -7   IZMIN=   -7

 serial   3D FFT for wavefunctions
 parallel 3D FFT for charge:
    minimum data exchange during FFTs selected (reduces bandwidth)

 Broyden mixing: mesh for mixing (old mesh)
   NGX = 15   NGY = 15   NGZ = 15
  (NGX  = 60   NGY  = 60   NGZ  = 60)
  gives a total of   3375 points

 initial charge density was supplied:
 charge density of overlapping atoms calculated
 number of electron       8.0000000 magnetization
 keeping initial charge density in first step

 Maximum index for augmentation-charges         5439 (set IRDMAX)

 First call to EWALD:  gamma=   0.518
 Maximum number of real-space cells 3x 3x 3
 Maximum number of reciprocal cells 3x 3x 3

--------------------------------------- Ionic step        1  -------------------------------------------

--------------------------------------- Iteration      1(   1)  ---------------------------------------

 eigenvalue-minimisations  :   760
 total energy-change (2. order) : 0.6798038E+01  (-0.3278629E+03)
 number of electron       8.0000000 magnetization
 augmentation part        8.0000000 magnetization

 Free energy of the ion-electron system (eV)
  alpha Z        PSCENC =         3.36321811
  Ewald energy   TEWEN  =      -228.54248050
  -Hartree energ DENC   =       -11.00522831
  -exchange      EXHF   =         0.00000000
  -V(xc)+E(xc)   XCENC  =       -18.60295369
  PAW double counting   =       176.24759923     -141.06103558
  entropy T*S    EENTRO =        -0.00079900
  eigenvalues    EBANDS =        20.26701456
  atomic energy  EATOM  =       206.13270273
  Solvation  Ediel_sol  =         0.00000000
  free energy    TOTEN  =         6.79803756 eV

  energy without entropy =        6.79883656  energy(sigma->0) =        6.79843706

[...]

 eigenvalue-minimisations  :  1152
 total energy-change (2. order) :-0.1756860E+02  (-0.1699314E+02)
 number of electron       8.0000000 magnetization
 augmentation part        8.0000000 magnetization

[...]

 Broyden mixing:
  rms(total) = 0.48819E+00    rms(broyden)= 0.48819E+00
  rms(prec ) = 0.95412E+00
  weight for this iteration     100.00

[...]

 eigenvalues of (default mixing * dielectric matrix)
  average eigenvalue GAMMA=   2.5657
  2.5657

[...]

 average (electrostatic) potential at core
  the test charge radii are     0.9892
  (the norm of the test charge is              1.0000)
       1 -83.2477       2 -83.2477

 E-fermi :   5.9613     XC(G=0):  -9.4094     alpha+bet :-11.9812

 Fermi energy:         5.9612985934

 k-point     1 :       0.0000    0.0000    0.0000
  band No.  band energies     occupation
      1      -6.1310      2.00000
      2       5.8271      2.00000
      3       5.8271      2.00000
      4       5.8271      2.00000
      5       8.3929      0.00000
      6       8.3929      0.00000
      7       8.3929      0.00000
      8       9.2022      0.00000

[...]

 soft charge-density along one line, spin component           1
         0         1         2         3         4         5         6         7         8         9
 total charge-density along one line

------------------------ aborting loop because EDIFF is reached ----------------------------------------

  FORCE on cell =-STRESS in cart. coord.  units (eV):
  Direction    XX          YY          ZZ          XY          YZ          ZX
  Alpha Z     3.36322     3.36322     3.36322
  Ewald     -76.18086   -76.18086   -76.18086    -0.00000    -0.00000    -0.00000
  Hartree     4.97429     4.97429     4.97429     0.00000     0.00000     0.00000
  E(xc)     -25.36837   -25.36837   -25.36837     0.00000     0.00000     0.00000
  Local     -29.21710   -29.21710   -29.21710     0.00000     0.00000     0.00000
  n-local    78.85542    80.19356    74.45801     2.23350    -1.28607     0.56852
  augment   -11.65295   -11.65295   -11.65295    -0.00000    -0.00000    -0.00000
  Kinetic    58.87541    56.17689    55.14905     3.55334    -0.66513     1.02737
  Fock        0.00000     0.00000     0.00000     0.00000     0.00000     0.00000
  Total       0.48767     0.48767     0.48767    -0.00000     0.00000    -0.00000
  in kB      19.51559    19.51559    19.51559    -0.00000     0.00000    -0.00000

 VOLUME and BASIS-vectors are now :
  energy-cutoff  :      520.00
  volume of cell :       40.04
      direct lattice vectors                 reciprocal lattice vectors
     0.000000000  2.715250000  2.715250000    -0.184145106  0.184145106  0.184145106
     2.715250000  0.000000000  2.715250000     0.184145106 -0.184145106  0.184145106
     2.715250000  2.715250000  0.000000000     0.184145106  0.184145106 -0.184145106

[...]

 FORCES acting on ions
    electron-ion (+dipol)            ewald-force                    non-local-force                 convergence-correction
   0.960E-08 0.960E-08 0.116E-07   0.525E-14 0.523E-14 0.650E-14   0.139E-16 0.208E-16 -.520E-16   0.603E-10 0.603E-10 0.603E-10
   -.960E-08 -.960E-08 -.116E-07   -.558E-14 -.471E-14 -.643E-14   0.000E+00 -.208E-16 0.625E-16   -.603E-10 -.603E-10 -.603E-10
   -.920E-14 -.344E-13 -.170E-13   -.332E-15 0.524E-15 0.730E-16   0.139E-16 0.000E+00 0.104E-16   -.506E-14 -.480E-14 -.177E-14

 POSITION                                       TOTAL-FORCE (eV/Angst)
      0.00000      0.00000      0.00000        -0.000000     -0.000000     -0.000000
      1.35763      1.35763      1.35763         0.000000      0.000000      0.000000
    total drift:                               -0.000000     -0.000000     -0.000000

  FREE ENERGIE OF THE ION-ELECTRON SYSTEM (eV)
  free  energy   TOTEN  =       -10.84408769 eV

  energy  without entropy=      -10.84408769  energy(sigma->0) =      -10.84408769

 stress matrix after NEB project (eV)
      0.48767     -0.00000     -0.00000
     -0.00000      0.48767     -0.00000
     -0.00000      0.00000      0.48767
  FORCES: max atom, RMS     0.000000    0.000000
  FORCE total and by dimension    0.000000    0.000000
  Stress total and by dimension    0.844678    0.487675

[...]

 d Force = 0.0000000E+00[ 0.000E+00, 0.000E+00]  d Energy = 0.2788974E-02-0.279E-02
 d Force = 0.0000000E+00[ 0.000E+00, 0.000E+00]  d Ewald  =-0.2657172E+01 0.266E+01

 stress matrix after NEB project (eV)
     -0.31546      0.00000      0.00000
      0.00000     -0.31546     -0.00000
      0.00000     -0.00000     -0.31546
  FORCES: max atom, RMS     0.000000    0.000000
  FORCE total and by dimension    0.000000    0.000000
  Stress total and by dimension    0.546395    0.315461
 Steepest descent step on ions:
 trial-energy change:   -0.002789  1 .order   -0.003039   -0.017210    0.011133
  (g-gl).g = 0.172E-01      g.g   = 0.172E-01  gl.gl    = 0.000E+00
 g(Force)  = 0.461E-49   g(Stress)= 0.172E-01 ortho     = 0.000E+00
 gamma     =   0.00000
 trial     =   1.00000
 opt step  =   0.59447  (harmonic =   0.60721) maximal distance =0.00000000
 next E    =   -10.849151   (d E  =  -0.00506)

--------------------------------------- Ionic step        3  -------------------------------------------

[...]

 eigenvalue-minimisations  :  1040
 total energy-change (2. order) : 0.1078920E-06  (-0.2414313E-08)
 number of electron       8.0000001 magnetization
 augmentation part       -0.4582915 magnetization

[...]

 Broyden mixing:
  rms(total) = 0.15931E-03    rms(broyden)= 0.15931E-03
  rms(prec ) = 0.16186E-03
  weight for this iteration     100.00

 eigenvalues of (default mixing * dielectric matrix)
  average eigenvalue GAMMA=   1.8477
  3.0975  2.6818  2.1645  0.9361  1.1031  1.1031

[...]

--------------------------------------- Iteration      3(   8)  ---------------------------------------

 eigenvalue-minimisations  :   568
 total energy-change (2. order) :-0.3816012E-08  (-0.1496128E-09)
 number of electron       8.0000001 magnetization
 augmentation part       -0.4582938 magnetization

 Free energy of the ion-electron system (eV)
  alpha Z        PSCENC =         3.29363716
  Ewald energy   TEWEN  =      -226.95539459
  -Hartree energ DENC   =       -15.17212232
  -exchange      EXHF   =         0.00000000
  -V(xc)+E(xc)   XCENC  =       -18.05962066
  PAW double counting   =       830.21583660     -795.23482887
  entropy T*S    EENTRO =        -0.00000000
  eigenvalues    EBANDS =         4.93065729
  atomic energy  EATOM  =       206.13270273
  Solvation  Ediel_sol  =         0.00000000
  free energy    TOTEN  =       -10.84913266 eV

  energy without entropy =      -10.84913266  energy(sigma->0) =      -10.84913266

 average (electrostatic) potential at core
  the test charge radii are     0.9892
  (the norm of the test charge is              1.0000)
       1 -83.4810       2 -83.4810

 E-fermi :   5.7966     XC(G=0):  -9.3277     alpha+bet :-11.7333

 Fermi energy:         5.7965660598

[...]

 k-point    47 :      -0.3000    0.5000    0.2000
  band No.  band energies     occupation
      1      -1.9905      2.00000
      2      -1.9905      2.00000
      3       1.9309      2.00000
      4       1.9309      2.00000
      5       9.0432      0.00000
      6       9.0432      0.00000
      7      11.4800      0.00000
      8      11.4800      0.00000

 soft charge-density along one line, spin component           1
         0         1         2         3         4         5         6         7         8         9
 total charge-density along one line

------------------------ aborting loop because EDIFF is reached ----------------------------------------

  FORCE on cell =-STRESS in cart. coord.  units (eV):
  Direction    XX          YY          ZZ          XY          YZ          ZX
  Alpha Z     3.29364     3.29364     3.29364
  Ewald     -75.65183   -75.65183   -75.65183    -0.00000    -0.00000    -0.00000
  Hartree     5.05738     5.05738     5.05738     0.00000     0.00000     0.00000
  E(xc)     -25.24712   -25.24712   -25.24712     0.00000     0.00000     0.00000
  Local     -29.50819   -29.50819   -29.50819     0.00000     0.00000     0.00000
  n-local    78.46569    79.79913    74.08745     2.18952    -1.25444     0.55019
  augment   -11.64766   -11.64766   -11.64766    -0.00000    -0.00000    -0.00000
  Kinetic    58.38945    55.85927    54.51428     3.55251    -0.69990     1.02525
  Fock        0.00000     0.00000     0.00000     0.00000     0.00000     0.00000
  Total       0.00130     0.00130     0.00130    -0.00000     0.00000     0.00000
  in kB       0.05093     0.05093     0.05093    -0.00000     0.00000     0.00000

 VOLUME and BASIS-vectors are now :
  energy-cutoff  :      520.00
  volume of cell :       40.88
      direct lattice vectors                 reciprocal lattice vectors
    -0.000000000  2.734237586  2.734237586    -0.182866333  0.182866333  0.182866333
     2.734237586 -0.000000000  2.734237586     0.182866333 -0.182866333  0.182866333
     2.734237586  2.734237586 -0.000000000     0.182866333  0.182866333 -0.182866333

  length of vectors
     3.866795876  3.866795876  3.866795876     0.316733779  0.316733779  0.316733779

 FORCES acting on ions
    electron-ion (+dipol)            ewald-force                    non-local-force                 convergence-correction
   0.565E-08 0.565E-08 0.810E-08   0.411E-14 0.275E-14 0.433E-14   0.125E-15 0.104E-15 0.936E-16   -.502E-09 -.502E-09 -.502E-09
   -.565E-08 -.565E-08 -.810E-08   -.378E-14 -.281E-14 -.422E-14   -.118E-15 -.694E-16 -.936E-16   0.502E-09 0.502E-09 0.502E-09
   -.390E-13 -.579E-13 -.104E-13   0.328E-15 -.614E-16 0.105E-15   0.694E-17 0.347E-16 0.646E-27   0.152E-14 -.659E-15 -.701E-15

 POSITION                                       TOTAL-FORCE (eV/Angst)
     -0.00000     -0.00000     -0.00000        -0.000000     -0.000000     -0.000000
      1.36712      1.36712      1.36712         0.000000      0.000000      0.000000
    total drift:                               -0.000000     -0.000000     -0.000000

  FREE ENERGIE OF THE ION-ELECTRON SYSTEM (eV)
  free  energy   TOTEN  =       -10.84913266 eV

  energy  without entropy=      -10.84913266  energy(sigma->0) =      -10.84913266

 d Force = 0.0000000E+00[ 0.000E+00, 0.000E+00]  d Energy = 0.2255997E-02-0.226E-02
 d Force = 0.0000000E+00[ 0.000E+00, 0.000E+00]  d Ewald  = 0.1070086E+01-0.107E+01

 stress matrix after NEB project (eV)
      0.00130     -0.00000      0.00000
     -0.00000      0.00130      0.00000
     -0.00000      0.00000      0.00130
  FORCES: max atom, RMS     0.000000    0.000000
  FORCE total and by dimension    0.000000    0.000000
  Stress total and by dimension    0.002251    0.001300

 reached required accuracy - stopping structural energy minimisation