 vasp.6.4.2 20Jul23 (build Oct 16 2024 22:45:58) complex

 executed on             LinuxIFC date 2025.02.15  11:18:35

 INCAR:
   SYSTEM = Cu FCC
   PREC = Accurate
   EDIFF = 1E-10
   EDIFFG = -1E-5
   ISMEAR = 0
   SIGMA = 0.03
   GGA = PE
   ENCUT = 520
   NSW = 0
   IBRION = -1
   ISIF = 0
   LWAVE = .FALSE.
   ICHARG = 11
   LORBIT = 11

 POTCAR:    PAW_PBE Cu 22Jun2005
 POTCAR:    PAW_PBE Cu 22Jun2005
   VRHFIN =Cu: d10 p1

   TITEL  = PAW_PBE Cu 22Jun2005
   POMASS =   63.546; ZVAL   =   11.000    mass and valenz
   ENMAX  =  295.446; ENMIN  =  221.585 eV

  PAW_PBE Cu 22Jun2005                  :

 POSCAR: Copper  [FCC,FCC,cF4] (STD_PRIM doi:10.1
  positions in direct lattice
  velocities in cartesian coordinates
 exchange correlation table for  LEXCH =        8
   RHO(1)=    0.500       N(1)  =     2000
   RHO(2)=  100.500       N(2)  =     4000

 VTST: version 4.1, (05/19/21)

 CHAIN: initializing optimizer

 OPT: Using VASP Dynamics algorithm
 CHAIN: Read ICHAIN            0

 POSCAR: Copper  [FCC,FCC,cF4] (STD_PRIM doi:10.1
  positions in direct lattice
  velocities in cartesian coordinates

 ion  position               nearest neighbor table
   1  0.000  0.000  0.000-

  LATTYP: Found a face centered cubic cell.
 ALAT       =     3.6368206731

  Lattice vectors:

 A1 = (   0.0000000000,   1.8184103366,   1.8184103366)
 A2 = (   1.8184103366,   0.0000000000,   1.8184103366)
 A3 = (   1.8184103366,   1.8184103366,   0.0000000000)

Analysis of symmetry for initial positions (statically):
 Subroutine PRICEL returns:
 Original cell was already a primitive cell.

 Routine SETGRP: Setting up the symmetry group for a
 face centered cubic supercell.

 Subroutine GETGRP returns: Found 48 space group operations
 (whereof 48 operations were pure point group operations)
 out of a pool of 48 trial point group operations.

The static configuration has the point symmetry O_h .

Analysis of symmetry for dynamics (positions and initial velocities):
 Subroutine PRICEL returns:
 Original cell was already a primitive cell.

 Routine SETGRP: Setting up the symmetry group for a
 face centered cubic supercell.

 Subroutine GETGRP returns: Found 48 space group operations
 (whereof 48 operations were pure point group operations)
 out of a pool of 48 trial point group operations.

The dynamic configuration has the point symmetry O_h .

 Subroutine INISYM returns: Found 48 space group operations
 (whereof 48 operations are pure point group operations),
 and found     1 'primitive' translations

                                     Primitive cell

  volume of cell :      12.0256

  direct lattice vectors                    reciprocal lattice vectors
     0.000000000  1.818410337  1.818410337    -0.274965441  0.274965441  0.274965441
     1.818410337  0.000000000  1.818410337     0.274965441 -0.274965441  0.274965441
     1.818410337  1.818410337  0.000000000     0.274965441  0.274965441 -0.274965441

  length of vectors
     2.571620560  2.571620560  2.571620560     0.476254114  0.476254114  0.476254114

  position of ions in fractional coordinates (direct lattice)
     0.000000000  0.000000000  0.000000000

  ion indices of the primitive-cell ions
   primitive index   ion index
                 1           1

 KPOINTS: FCC (face-centered cubic) G-X-W-K-G-L-U-

Interpolating k-points between supplied coordinates.

 Line segments in fractional coordinates (reciprocal lattice):
    0.000000  0.000000  0.000000  ...  0.500000  0.000000  0.500000
    0.500000  0.000000  0.500000  ...  0.500000  0.250000  0.750000
    0.500000  0.250000  0.750000  ...  0.375000  0.375000  0.750000
    0.375000  0.375000  0.750000  ...  0.000000  0.000000  0.000000
    0.000000  0.000000  0.000000  ...  0.500000  0.500000  0.500000
    0.500000  0.500000  0.500000  ...  0.625000  0.250000  0.625000
    0.625000  0.250000  0.625000  ...  0.500000  0.250000  0.750000
    0.500000  0.250000  0.750000  ...  0.500000  0.500000  0.500000
    0.500000  0.500000  0.500000  ...  0.375000  0.375000  0.750000
    0.625000  0.250000  0.625000  ...  0.500000  0.000000  0.500000

 Generated    25 points on each line segment, for a total of    250 k-points:

 Following reciprocal coordinates:
            Coordinates               Weight
  0.000000  0.000000  0.000000      0.004000
  0.020833  0.000000  0.020833      0.004000
  0.041667  0.000000  0.041667      0.004000
  0.062500  0.000000  0.062500      0.004000
  0.083333  0.000000  0.083333      0.004000
  0.104167  0.000000  0.104167      0.004000
  0.125000  0.000000  0.125000      0.004000
  0.145833  0.000000  0.145833      0.004000
  0.166667  0.000000  0.166667      0.004000
  0.187500  0.000000  0.187500      0.004000
  0.208333  0.000000  0.208333      0.004000
  0.229167  0.000000  0.229167      0.004000
  0.250000  0.000000  0.250000      0.004000
  0.270833  0.000000  0.270833      0.004000
  0.291667  0.000000  0.291667      0.004000
  0.312500  0.000000  0.312500      0.004000
  0.333333  0.000000  0.333333      0.004000
  0.354167  0.000000  0.354167      0.004000
  0.375000  0.000000  0.375000      0.004000
  0.395833  0.000000  0.395833      0.004000
  0.416667  0.000000  0.416667      0.004000
  0.437500  0.000000  0.437500      0.004000
  0.458333  0.000000  0.458333      0.004000
  0.479167  0.000000  0.479167      0.004000
  0.500000  0.000000  0.500000      0.004000
  0.500000  0.000000  0.500000      0.004000
  0.500000  0.010417  0.510417      0.004000
  0.500000  0.020833  0.520833      0.004000
  0.500000  0.031250  0.531250      0.004000
  0.500000  0.041667  0.541667      0.004000
  0.500000  0.052083  0.552083      0.004000
  0.500000  0.062500  0.562500      0.004000
  0.500000  0.072917  0.572917      0.004000
  0.500000  0.083333  0.583333      0.004000
  0.500000  0.093750  0.593750      0.004000
  0.500000  0.104167  0.604167      0.004000
  0.500000  0.114583  0.614583      0.004000
  0.500000  0.125000  0.625000      0.004000
  0.500000  0.135417  0.635417      0.004000
  0.500000  0.145833  0.645833      0.004000
  0.500000  0.156250  0.656250      0.004000
  0.500000  0.166667  0.666667      0.004000
  0.500000  0.177083  0.677083      0.004000
  0.500000  0.187500  0.687500      0.004000
  0.500000  0.197917  0.697917      0.004000
  0.500000  0.208333  0.708333      0.004000
  0.500000  0.218750  0.718750      0.004000
  0.500000  0.229167  0.729167      0.004000
  0.500000  0.239583  0.739583      0.004000
  0.500000  0.250000  0.750000      0.004000
  0.500000  0.250000  0.750000      0.004000
  0.494792  0.255208  0.750000      0.004000
  0.489583  0.260417  0.750000      0.004000
  0.484375  0.265625  0.750000      0.004000
  0.479167  0.270833  0.750000      0.004000
  0.473958  0.276042  0.750000      0.004000
  0.468750  0.281250  0.750000      0.004000
  0.463542  0.286458  0.750000      0.004000
  0.458333  0.291667  0.750000      0.004000
  0.453125  0.296875  0.750000      0.004000
[...]
  0.572917  0.145833  0.572917      0.004000
  0.567708  0.135417  0.567708      0.004000
  0.562500  0.125000  0.562500      0.004000
  0.557292  0.114583  0.557292      0.004000
  0.552083  0.104167  0.552083      0.004000
  0.546875  0.093750  0.546875      0.004000
  0.541667  0.083333  0.541667      0.004000
  0.536458  0.072917  0.536458      0.004000
  0.531250  0.062500  0.531250      0.004000
  0.526042  0.052083  0.526042      0.004000
  0.520833  0.041667  0.520833      0.004000
  0.515625  0.031250  0.515625      0.004000
  0.510417  0.020833  0.510417      0.004000
  0.505208  0.010417  0.505208      0.004000
  0.500000  0.000000  0.500000      0.004000

 Following cartesian coordinates:
            Coordinates               Weight
  0.000000  0.000000  0.000000      0.004000
  0.000000  0.011457  0.000000      0.004000
  0.000000  0.022914  0.000000      0.004000
  0.000000  0.034371  0.000000      0.004000
  0.000000  0.045828  0.000000      0.004000
  0.000000  0.057284  0.000000      0.004000
  0.000000  0.068741  0.000000      0.004000
  0.000000  0.080198  0.000000      0.004000
  0.000000  0.091655  0.000000      0.004000
  0.000000  0.103112  0.000000      0.004000
  0.000000  0.114569  0.000000      0.004000
  0.000000  0.126026  0.000000      0.004000
  0.000000  0.137483  0.000000      0.004000
  0.000000  0.148940  0.000000      0.004000
  0.000000  0.160397  0.000000      0.004000
  0.000000  0.171853  0.000000      0.004000
  0.000000  0.183310  0.000000      0.004000
  0.000000  0.194767  0.000000      0.004000
  0.000000  0.206224  0.000000      0.004000
  0.000000  0.217681  0.000000      0.004000
  0.000000  0.229138  0.000000      0.004000
  0.000000  0.240595  0.000000      0.004000
  0.000000  0.252052  0.000000      0.004000
  0.000000  0.263509  0.000000      0.004000
  0.000000  0.274965  0.000000      0.004000
  0.000000  0.274965  0.000000      0.004000
  0.005728  0.274965  0.000000      0.004000
  0.011457  0.274965  0.000000      0.004000
  0.017185  0.274965  0.000000      0.004000
  0.022914  0.274965  0.000000      0.004000
  0.028642  0.274965  0.000000      0.004000
  0.034371  0.274965  0.000000      0.004000
  0.040099  0.274965  0.000000      0.004000
  0.045828  0.274965 -0.000000      0.004000
  0.051556  0.274965  0.000000      0.004000
  0.057284  0.274965  0.000000      0.004000
  0.063013  0.274965  0.000000      0.004000
  0.068741  0.274965  0.000000      0.004000
  0.074470  0.274965  0.000000      0.004000
  0.080198  0.274965  0.000000      0.004000
  0.085927  0.274965  0.000000      0.004000
  0.091655  0.274965  0.000000      0.004000
  0.097384  0.274965  0.000000      0.004000
  0.103112  0.274965  0.000000      0.004000
  0.108840  0.274965  0.000000      0.004000
  0.114569  0.274965  0.000000      0.004000
  0.120297  0.274965  0.000000      0.004000
  0.126026  0.274965  0.000000      0.004000
  0.131754  0.274965  0.000000      0.004000
  0.137483  0.274965  0.000000      0.004000
  0.137483  0.274965  0.000000      0.004000
  0.140347  0.272101 -0.000000      0.004000
  0.143211  0.269237 -0.000000      0.004000
  0.146075  0.266373  0.000000      0.004000
  0.148940  0.263509  0.000000      0.004000
  0.151804  0.260644  0.000000      0.004000
  0.154668  0.257780 -0.000000      0.004000
  0.157532  0.254916  0.000000      0.004000
  0.160397  0.252052  0.000000      0.004000
  0.163261  0.249187  0.000000      0.004000
[...]
  0.040099  0.274965  0.040099      0.004000
  0.037235  0.274965  0.037235      0.004000
  0.034371  0.274965  0.034371      0.004000
  0.031506  0.274965  0.031506      0.004000
  0.028642  0.274965  0.028642      0.004000
  0.025778  0.274965  0.025778      0.004000
  0.022914  0.274965  0.022914      0.004000
  0.020050  0.274965  0.020050      0.004000
  0.017185  0.274965  0.017185      0.004000
  0.014321  0.274965  0.014321      0.004000
  0.011457  0.274965  0.011457      0.004000
  0.008593  0.274965  0.008593      0.004000
  0.005728  0.274965  0.005728      0.004000
  0.002864  0.274965  0.002864      0.004000
  0.000000  0.274965  0.000000      0.004000

 SYSTEM =  Cu FCC
 POSCAR =  Copper  [FCC,FCC,cF4] (STD_PRIM doi:10.1

[...]
   0.09738359  0.27496544  0.00000000       0.004
   0.10311204  0.27496544  0.00000000       0.004
   0.10884049  0.27496544  0.00000000       0.004
   0.11456893  0.27496544  0.00000000       0.004
   0.12029738  0.27496544  0.00000000       0.004
   0.12602583  0.27496544  0.00000000       0.004
   0.13175427  0.27496544  0.00000000       0.004
   0.13748272  0.27496544  0.00000000       0.004
   0.13748272  0.27496544  0.00000000       0.004
   0.14034694  0.27210122 -0.00000000       0.004
   0.14321117  0.26923699 -0.00000000       0.004
   0.14607539  0.26637277  0.00000000       0.004
   0.14893961  0.26350855  0.00000000       0.004
   0.15180384  0.26064432  0.00000000       0.004
   0.15466806  0.25778010 -0.00000000       0.004
   0.15753228  0.25491588  0.00000000       0.004
   0.16039651  0.25205165  0.00000000       0.004
   0.16326073  0.24918743  0.00000000       0.004
[...]
   0.04009913  0.27496544  0.04009913       0.004
   0.03723490  0.27496544  0.03723490       0.004
   0.03437068  0.27496544  0.03437068       0.004
   0.03150646  0.27496544  0.03150646       0.004
   0.02864223  0.27496544  0.02864223       0.004
   0.02577801  0.27496544  0.02577801       0.004
   0.02291379  0.27496544  0.02291379       0.004
   0.02004956  0.27496544  0.02004956       0.004
   0.01718534  0.27496544  0.01718534       0.004
   0.01432112  0.27496544  0.01432112       0.004
   0.01145689  0.27496544  0.01145689       0.004
   0.00859267  0.27496544  0.00859267       0.004
   0.00572845  0.27496544  0.00572845       0.004
   0.00286422  0.27496544  0.00286422       0.004
   0.00000000  0.27496544  0.00000000       0.004

 k-points in reciprocal lattice and weights: FCC (face-centered cubic) G-X-W-K-G-L-U-
   0.00000000  0.00000000  0.00000000       0.004
   0.02083333  0.00000000  0.02083333       0.004
   0.04166667  0.00000000  0.04166667       0.004
   0.06250000  0.00000000  0.06250000       0.004
   0.08333333  0.00000000  0.08333333       0.004
   0.10416667  0.00000000  0.10416667       0.004
   0.12500000  0.00000000  0.12500000       0.004
   0.14583333  0.00000000  0.14583333       0.004
   0.16666667  0.00000000  0.16666667       0.004
   0.18750000  0.00000000  0.18750000       0.004
   0.20833333  0.00000000  0.20833333       0.004
   0.22916667  0.00000000  0.22916667       0.004
   0.25000000  0.00000000  0.25000000       0.004
   0.27083333  0.00000000  0.27083333       0.004
   0.29166667  0.00000000  0.29166667       0.004
   0.31250000  0.00000000  0.31250000       0.004
   0.33333333  0.00000000  0.33333333       0.004
   0.35416667  0.00000000  0.35416667       0.004
   0.37500000  0.00000000  0.37500000       0.004
   0.39583333  0.00000000  0.39583333       0.004
   0.41666667  0.00000000  0.41666667       0.004
   0.43750000  0.00000000  0.43750000       0.004
   0.45833333  0.00000000  0.45833333       0.004
   0.47916667  0.00000000  0.47916667       0.004
   0.50000000  0.00000000  0.50000000       0.004
   0.50000000  0.00000000  0.50000000       0.004
   0.50000000  0.01041667  0.51041667       0.004
   0.50000000  0.02083333  0.52083333       0.004
   0.50000000  0.03125000  0.53125000       0.004
   0.50000000  0.04166667  0.54166667       0.004
   0.50000000  0.05208333  0.55208333       0.004
   0.50000000  0.06250000  0.56250000       0.004
   0.50000000  0.07291667  0.57291667       0.004
   0.50000000  0.08333333  0.58333333       0.004
   0.50000000  0.09375000  0.59375000       0.004
   0.50000000  0.10416667  0.60416667       0.004
   0.50000000  0.11458333  0.61458333       0.004
   0.50000000  0.12500000  0.62500000       0.004
   0.50000000  0.13541667  0.63541667       0.004
   0.50000000  0.14583333  0.64583333       0.004
   0.50000000  0.15625000  0.65625000       0.004
   0.50000000  0.16666667  0.66666667       0.004
   0.50000000  0.17708333  0.67708333       0.004
   0.50000000  0.18750000  0.68750000       0.004
   0.50000000  0.19791667  0.69791667       0.004
   0.50000000  0.20833333  0.70833333       0.004
   0.50000000  0.21875000  0.71875000       0.004
   0.50000000  0.22916667  0.72916667       0.004
   0.50000000  0.23958333  0.73958333       0.004
   0.50000000  0.25000000  0.75000000       0.004
   0.50000000  0.25000000  0.75000000       0.004
   0.49479167  0.25520833  0.75000000       0.004
   0.48958333  0.26041667  0.75000000       0.004
   0.48437500  0.26562500  0.75000000       0.004
   0.47916667  0.27083333  0.75000000       0.004
   0.47395833  0.27604167  0.75000000       0.004
   0.46875000  0.28125000  0.75000000       0.004
   0.46354167  0.28645833  0.75000000       0.004
   0.45833333  0.29166667  0.75000000       0.004
   0.45312500  0.29687500  0.75000000       0.004
[...]
   0.57291667  0.14583333  0.57291667       0.004
   0.56770833  0.13541667  0.56770833       0.004
   0.56250000  0.12500000  0.56250000       0.004
   0.55729167  0.11458333  0.55729167       0.004
   0.55208333  0.10416667  0.55208333       0.004
   0.54687500  0.09375000  0.54687500       0.004
   0.54166667  0.08333333  0.54166667       0.004
   0.53645833  0.07291667  0.53645833       0.004
   0.53125000  0.06250000  0.53125000       0.004
   0.52604167  0.05208333  0.52604167       0.004
   0.52083333  0.04166667  0.52083333       0.004
   0.51562500  0.03125000  0.51562500       0.004
   0.51041667  0.02083333  0.51041667       0.004
   0.50520833  0.01041667  0.50520833       0.004
   0.50000000  0.00000000  0.50000000       0.004

 position of ions in fractional coordinates (direct lattice)
   0.00000000  0.00000000  0.00000000

 position of ions in cartesian coordinates  (Angst):
   0.00000000  0.00000000  0.00000000

 k-point   1 :   0.0000 0.0000 0.0000  plane waves:     331
 k-point   2 :   0.0208 0.0000 0.0208  plane waves:     331
 k-point   3 :   0.0417 0.0000 0.0417  plane waves:     331
 k-point   4 :   0.0625 0.0000 0.0625  plane waves:     331
 k-point   5 :   0.0833 0.0000 0.0833  plane waves:     327
 k-point   6 :   0.1042 0.0000 0.1042  plane waves:     327
 k-point   7 :   0.1250 0.0000 0.1250  plane waves:     327
 k-point   8 :   0.1458 0.0000 0.1458  plane waves:     323
 k-point   9 :   0.1667 0.0000 0.1667  plane waves:     327
 k-point  10 :   0.1875 0.0000 0.1875  plane waves:     327
 k-point  11 :   0.2083 0.0000 0.2083  plane waves:     323
 k-point  12 :   0.2292 0.0000 0.2292  plane waves:     315
 k-point  13 :   0.2500 0.0000 0.2500  plane waves:     311
 k-point  14 :   0.2708 0.0000 0.2708  plane waves:     311
 k-point  15 :   0.2917 0.0000 0.2917  plane waves:     323
 k-point  16 :   0.3125 0.0000 0.3125  plane waves:     323
 k-point  17 :   0.3333 0.0000 0.3333  plane waves:     323
 k-point  18 :   0.3542 0.0000 0.3542  plane waves:     323
 k-point  19 :   0.3750 0.0000 0.3750  plane waves:     323
 k-point  20 :   0.3958 0.0000 0.3958  plane waves:     322
 k-point  21 :   0.4167 0.0000 0.4167  plane waves:     322
 k-point  22 :   0.4375 0.0000 0.4375  plane waves:     322
 k-point  23 :   0.4583 0.0000 0.4583  plane waves:     326
 k-point  24 :   0.4792 0.0000 0.4792  plane waves:     334
 k-point  25 :   0.5000 0.0000 0.5000  plane waves:     326
 k-point  26 :   0.5000 0.0000 0.5000  plane waves:     326
 k-point  27 :   0.5000 0.0104 0.5104  plane waves:     326
 k-point  28 :   0.5000 0.0208 0.5208  plane waves:     326
 k-point  29 :   0.5000 0.0312 0.5312  plane waves:     328
 k-point  30 :   0.5000 0.0417 0.5417  plane waves:     328
 k-point  31 :   0.5000 0.0521 0.5521  plane waves:     324
 k-point  32 :   0.5000 0.0625 0.5625  plane waves:     324
 k-point  33 :   0.5000 0.0729 0.5729  plane waves:     324
 k-point  34 :   0.5000 0.0833 0.5833  plane waves:     328
 k-point  35 :   0.5000 0.0938 0.5938  plane waves:     324
 k-point  36 :   0.5000 0.1042 0.6042  plane waves:     324
 k-point  37 :   0.5000 0.1146 0.6146  plane waves:     324
 k-point  38 :   0.5000 0.1250 0.6250  plane waves:     324
 k-point  39 :   0.5000 0.1354 0.6354  plane waves:     324
 k-point  40 :   0.5000 0.1458 0.6458  plane waves:     328
 k-point  41 :   0.5000 0.1562 0.6562  plane waves:     330
 k-point  42 :   0.5000 0.1667 0.6667  plane waves:     330
 k-point  43 :   0.5000 0.1771 0.6771  plane waves:     330
 k-point  44 :   0.5000 0.1875 0.6875  plane waves:     326
 k-point  45 :   0.5000 0.1979 0.6979  plane waves:     322
 k-point  46 :   0.5000 0.2083 0.7083  plane waves:     322
 k-point  47 :   0.5000 0.2188 0.7188  plane waves:     322
 k-point  48 :   0.5000 0.2292 0.7292  plane waves:     328
 k-point  49 :   0.5000 0.2396 0.7396  plane waves:     328
 k-point  50 :   0.5000 0.2500 0.7500  plane waves:     328
 k-point  51 :   0.5000 0.2500 0.7500  plane waves:     328
 k-point  52 :   0.4948 0.2552 0.7500  plane waves:     328
 k-point  53 :   0.4896 0.2604 0.7500  plane waves:     328
 k-point  54 :   0.4844 0.2656 0.7500  plane waves:     327
 k-point  55 :   0.4792 0.2708 0.7500  plane waves:     325
 k-point  56 :   0.4740 0.2760 0.7500  plane waves:     323
 k-point  57 :   0.4688 0.2812 0.7500  plane waves:     323
 k-point  58 :   0.4635 0.2865 0.7500  plane waves:     321
 k-point  59 :   0.4583 0.2917 0.7500  plane waves:     321
 k-point  60 :   0.4531 0.2969 0.7500  plane waves:     323
[...]
 k-point 236 :   0.5729 0.1458 0.5729  plane waves:     326
 k-point 237 :   0.5677 0.1354 0.5677  plane waves:     326
 k-point 238 :   0.5625 0.1250 0.5625  plane waves:     326
 k-point 239 :   0.5573 0.1146 0.5573  plane waves:     326
 k-point 240 :   0.5521 0.1042 0.5521  plane waves:     326
 k-point 241 :   0.5469 0.0938 0.5469  plane waves:     326
 k-point 242 :   0.5417 0.0833 0.5417  plane waves:     326
 k-point 243 :   0.5365 0.0729 0.5365  plane waves:     326
 k-point 244 :   0.5312 0.0625 0.5312  plane waves:     322
 k-point 245 :   0.5260 0.0521 0.5260  plane waves:     330
 k-point 246 :   0.5208 0.0417 0.5208  plane waves:     330
 k-point 247 :   0.5156 0.0312 0.5156  plane waves:     326
 k-point 248 :   0.5104 0.0208 0.5104  plane waves:     326
 k-point 249 :   0.5052 0.0104 0.5052  plane waves:     326
 k-point 250 :   0.5000 0.0000 0.5000  plane waves:     326

 maximum and minimum number of plane-waves per node :       334      311

 maximum number of plane-waves:       334
 maximum index in each direction:
   IXMAX=    4   IYMAX=    4   IZMAX=    4
   IXMIN=   -5   IYMIN=   -5   IZMIN=   -5

 serial   3D FFT for wavefunctions
 parallel 3D FFT for charge:
    minimum data exchange during FFTs selected (reduces bandwidth)

 initial charge density was supplied:
 number of electron      10.9999995 magnetization
 keeping initial charge density in first step

 Maximum index for augmentation-charges         4713 (set IRDMAX)

 First call to EWALD:  gamma=   0.774
 Maximum number of real-space cells 3x 3x 3
 Maximum number of reciprocal cells 3x 3x 3

--------------------------------------- Ionic step        1  -------------------------------------------

--------------------------------------- Iteration      1(   1)  ---------------------------------------

 eigenvalue-minimisations  :  6648
 total energy-change (2. order) : 0.4662861E+02  (-0.5446945E+03)
 number of electron      10.9999995 magnetization
 augmentation part       10.9999995 magnetization

 Free energy of the ion-electron system (eV)
  alpha Z        PSCENC =        60.81441780
  Ewald energy   TEWEN  =     -1098.28698219
  -Hartree energ DENC   =      -342.31779597
  -exchange      EXHF   =         0.00000000
  -V(xc)+E(xc)   XCENC  =        44.63938130
  PAW double counting   =      1310.79312178    -1418.58454217
  entropy T*S    EENTRO =        -0.00041000
  eigenvalues    EBANDS =        98.59436128
  atomic energy  EATOM  =      1390.97705399
  Solvation  Ediel_sol  =         0.00000000
  free energy    TOTEN  =        46.62860581 eV

  energy without entropy =       46.62901582  energy(sigma->0) =       46.62881081

[...]

 eigenvalue-minimisations  :  6164
 total energy-change (2. order) :-0.4753880E+02  (-0.4341070E+02)
 number of electron      10.9999995 magnetization
 augmentation part       10.9999995 magnetization

[...]

 eigenvalue-minimisations  :  6668
 total energy-change (2. order) :-0.8394636E-09  (-0.1972928E-10)
 number of electron      10.9999995 magnetization
 augmentation part       10.9999995 magnetization

[...]

--------------------------------------- Iteration      1(  11)  ---------------------------------------

 eigenvalue-minimisations  :  4564
 total energy-change (2. order) : 0.9868018E-10  (-0.1491630E-12)
 number of electron      10.9999995 magnetization
 augmentation part       10.9999995 magnetization

 Free energy of the ion-electron system (eV)
  alpha Z        PSCENC =        60.81441780
  Ewald energy   TEWEN  =     -1098.28698219
  -Hartree energ DENC   =      -342.31779597
  -exchange      EXHF   =         0.00000000
  -V(xc)+E(xc)   XCENC  =        44.63938130
  PAW double counting   =      1310.79312178    -1418.58454217
  entropy T*S    EENTRO =        -0.00007503
  eigenvalues    EBANDS =        49.61834678
  atomic energy  EATOM  =      1390.97705399
  Solvation  Ediel_sol  =         0.00000000
  free energy    TOTEN  =        -2.34707371 eV

  energy without entropy =       -2.34699868  energy(sigma->0) =       -2.34703620

 average (electrostatic) potential at core
  the test charge radii are     0.9430
  (the norm of the test charge is              1.0000)
       1 -63.8756

 E-fermi :   9.3206     XC(G=0): -12.6210     alpha+bet :-13.1839

 Fermi energy:         9.3206332184

 k-point     1 :       0.0000    0.0000    0.0000
  band No.  band energies     occupation
      1      -1.8506      2.00000
      2       4.4004      2.00000
      3       4.4004      2.00000
      4       4.4004      2.00000
      5       5.1884      2.00000
      6       5.1884      2.00000
      7      29.8133      0.00000
      8      32.3179      0.00000
      9      32.3180      0.00000
     10      32.3180      0.00000
     11      34.7983      0.00000
     12      34.7983      0.00000

[...]

 k-point   250 :       0.5000    0.0000    0.5000
  band No.  band energies     occupation
      1       2.5875      2.00000
      2       3.0446      2.00000
      3       5.7231      2.00000
      4       5.8924      2.00000
      5       5.8924      2.00000
      6       8.8758      2.00000
      7      14.3519      0.00000
      8      20.3067      0.00000
      9      20.3067      0.00000
     10      24.7579      0.00000
     11      27.3268      0.00000
     12      49.0921      0.00000

 soft charge-density along one line, spin component           1
         0         1         2         3         4         5         6         7         8         9
 total charge-density along one line

------------------------ aborting loop because EDIFF is reached ----------------------------------------

 total charge

# of ion       s       p       d       tot
    1        0.305   0.463   9.209   9.977

 VOLUME and BASIS-vectors are now :
  energy-cutoff  :      520.00
  volume of cell :       12.03
      direct lattice vectors                 reciprocal lattice vectors
     0.000000000  1.818410337  1.818410337    -0.274965441  0.274965441  0.274965441
     1.818410337  0.000000000  1.818410337     0.274965441 -0.274965441  0.274965441
     1.818410337  1.818410337  0.000000000     0.274965441  0.274965441 -0.274965441

  length of vectors
     2.571620560  2.571620560  2.571620560     0.476254114  0.476254114  0.476254114

 FORCES acting on ions
    electron-ion (+dipol)            ewald-force                    non-local-force                 convergence-correction
   -.196E-13 0.142E-14 -.550E-14   -.176E-14 0.198E-14 -.327E-14   -.207E-24 -.207E-24 -.207E-24   0.249E-13 -.124E-13 -.939E-14
   -.196E-13 0.142E-14 -.550E-14   -.176E-14 0.198E-14 -.327E-14   -.207E-24 -.207E-24 -.207E-24   0.249E-13 -.124E-13 -.939E-14

 POSITION                                       TOTAL-FORCE (eV/Angst)
      0.00000      0.00000      0.00000         0.000000      0.000000      0.000000
    total drift:                                0.000000     -0.000000     -0.000000

  FREE ENERGIE OF THE ION-ELECTRON SYSTEM (eV)
  free  energy   TOTEN  =        -2.34707371 eV

  energy  without entropy=       -2.34699868  energy(sigma->0) =       -2.34703620

 stress matrix after NEB project (eV)
      0.00000      0.00000      0.00000
      0.00000      0.00000      0.00000
      0.00000      0.00000      0.00000
  FORCES: max atom, RMS     0.000000    0.000000
  FORCE total and by dimension    0.000000    0.000000
  Stress total and by dimension    0.000000    0.000000

 total charge

# of ion       s       p       d       tot
    1        0.305   0.463   9.209   9.977