 vasp.6.4.2 20Jul23 (build Oct 16 2024 22:45:58) complex

 executed on             LinuxIFC date 2025.02.10  22:35:26

 INCAR:
   SYSTEM = Cu FCC
   PREC = Accurate
   EDIFF = 1E-8
   ISMEAR = 0
   SIGMA = 0.03
   GGA = PE
   ENCUT = 520
   NSW = 100
   IBRION = 2
   ISIF = 3
   LWAVE = .FALSE.
   LCHARG = .FALSE.

 POTCAR:    PAW_PBE Cu 22Jun2005
 POTCAR:    PAW_PBE Cu 22Jun2005
   VRHFIN =Cu: d10 p1

   TITEL  = PAW_PBE Cu 22Jun2005
   POMASS =   63.546; ZVAL   =   11.000    mass and valenz
   ENMAX  =  295.446; ENMIN  =  221.585 eV

  PAW_PBE Cu 22Jun2005                  :

 POSCAR: Copper  [FCC,FCC,cF4] (STD_PRIM doi:10.1
  positions in direct lattice
 exchange correlation table for  LEXCH =        8
   RHO(1)=    0.500       N(1)  =     2000
   RHO(2)=  100.500       N(2)  =     4000

 VTST: version 4.1, (05/19/21)

 CHAIN: initializing optimizer

 OPT: Using VASP Conjugate-Gradient optimizer
 CHAIN: Read ICHAIN            0

 POSCAR: Copper  [FCC,FCC,cF4] (STD_PRIM doi:10.1
  positions in direct lattice

 ion  position               nearest neighbor table
   1  0.000  0.000  0.000-

  LATTYP: Found a face centered cubic cell.
 ALAT       =     3.6198999882

  Lattice vectors:

 A1 = (   0.0000000000,   1.8099499941,   1.8099499941)
 A2 = (   1.8099499941,   0.0000000000,   1.8099499941)
 A3 = (   1.8099499941,   1.8099499941,   0.0000000000)

Analysis of symmetry for initial positions (statically):
 Subroutine PRICEL returns:
 Original cell was already a primitive cell.

 Routine SETGRP: Setting up the symmetry group for a
 face centered cubic supercell.

 Subroutine GETGRP returns: Found 48 space group operations
 (whereof 48 operations were pure point group operations)
 out of a pool of 48 trial point group operations.

The static configuration has the point symmetry O_h .

Analysis of symmetry for dynamics (positions and initial velocities):
 Subroutine PRICEL returns:
 Original cell was already a primitive cell.

 Routine SETGRP: Setting up the symmetry group for a
 face centered cubic supercell.

 Subroutine GETGRP returns: Found 48 space group operations
 (whereof 48 operations were pure point group operations)
 out of a pool of 48 trial point group operations.

The dynamic configuration has the point symmetry O_h .

 Subroutine INISYM returns: Found 48 space group operations
 (whereof 48 operations are pure point group operations),
 and found     1 'primitive' translations

                                     Primitive cell

  volume of cell :      11.8585

  direct lattice vectors                    reciprocal lattice vectors
     0.000000000  1.809949994  1.809949994    -0.276250726  0.276250726  0.276250726
     1.809949994  0.000000000  1.809949994     0.276250726 -0.276250726  0.276250726
     1.809949994  1.809949994  0.000000000     0.276250726  0.276250726 -0.276250726

  length of vectors
     2.559655829  2.559655829  2.559655829     0.478480293  0.478480293  0.478480293

  position of ions in fractional coordinates (direct lattice)
     0.000000000  0.000000000  0.000000000

  ion indices of the primitive-cell ions
   primitive index   ion index
                 1           1

 KPOINTS: KPOINTS

Automatic generation of k-mesh.
 Grid dimensions read from file:
 generate k-points for:   10   10   10

 Generating k-lattice:

  Cartesian coordinates                     Fractional coordinates (reciprocal lattice)
    -0.027625073  0.027625073  0.027625073     0.100000000  0.000000000  0.000000000
     0.027625073 -0.027625073  0.027625073     0.000000000  0.100000000  0.000000000
     0.027625073  0.027625073 -0.027625073     0.000000000  0.000000000  0.100000000

  Length of vectors
     0.047848029  0.047848029  0.047848029

  Shift w.r.t. Gamma in fractional coordinates (k-lattice)
     0.000000000  0.000000000  0.000000000

 Subroutine IBZKPT returns following result:

 Found     47 irreducible k-points:

 Following reciprocal coordinates:
            Coordinates               Weight
  0.000000  0.000000  0.000000      1.000000
  0.100000  0.000000  0.000000      8.000000
  0.200000  0.000000  0.000000      8.000000
  0.300000  0.000000  0.000000      8.000000
  0.400000  0.000000  0.000000      8.000000
  0.500000  0.000000  0.000000      4.000000
  0.100000  0.100000  0.000000      6.000000
  0.200000  0.100000  0.000000     24.000000
  0.300000  0.100000  0.000000     24.000000
  0.400000  0.100000  0.000000     24.000000
  0.500000  0.100000  0.000000     24.000000
 -0.400000  0.100000  0.000000     24.000000
 -0.300000  0.100000  0.000000     24.000000
 -0.200000  0.100000  0.000000     24.000000
 -0.100000  0.100000  0.000000     12.000000
  0.200000  0.200000  0.000000      6.000000
  0.300000  0.200000  0.000000     24.000000
  0.400000  0.200000  0.000000     24.000000
  0.500000  0.200000  0.000000     24.000000
 -0.400000  0.200000  0.000000     24.000000
 -0.300000  0.200000  0.000000     24.000000
 -0.200000  0.200000  0.000000     12.000000
  0.300000  0.300000  0.000000      6.000000
  0.400000  0.300000  0.000000     24.000000
  0.500000  0.300000  0.000000     24.000000
 -0.400000  0.300000  0.000000     24.000000
 -0.300000  0.300000  0.000000     12.000000
  0.400000  0.400000  0.000000      6.000000
  0.500000  0.400000  0.000000     24.000000
 -0.400000  0.400000  0.000000     12.000000
  0.500000  0.500000  0.000000      3.000000
  0.300000  0.200000  0.100000     24.000000
  0.400000  0.200000  0.100000     48.000000
  0.500000  0.200000  0.100000     48.000000
 -0.400000  0.200000  0.100000     24.000000
  0.400000  0.300000  0.100000     24.000000
  0.500000  0.300000  0.100000     48.000000
 -0.400000  0.300000  0.100000     48.000000
 -0.300000  0.300000  0.100000     48.000000
 -0.200000  0.300000  0.100000     24.000000
  0.500000  0.400000  0.100000     24.000000
 -0.400000  0.400000  0.100000     48.000000
 -0.300000  0.400000  0.100000     24.000000
 -0.400000  0.500000  0.100000     12.000000
 -0.400000  0.400000  0.200000     24.000000
 -0.300000  0.400000  0.200000     24.000000
 -0.300000  0.500000  0.200000     12.000000

 Following cartesian coordinates:
            Coordinates               Weight
  0.000000  0.000000  0.000000      1.000000
 -0.027625  0.027625  0.027625      8.000000
 -0.055250  0.055250  0.055250      8.000000
 -0.082875  0.082875  0.082875      8.000000
 -0.110500  0.110500  0.110500      8.000000
 -0.138125  0.138125  0.138125      4.000000
  0.000000  0.000000  0.055250      6.000000
 -0.027625  0.027625  0.082875     24.000000
 -0.055250  0.055250  0.110500     24.000000
 -0.082875  0.082875  0.138125     24.000000
 -0.110500  0.110500  0.165750     24.000000
  0.138125 -0.138125 -0.082875     24.000000
  0.110500 -0.110500 -0.055250     24.000000
  0.082875 -0.082875 -0.027625     24.000000
  0.055250 -0.055250  0.000000     12.000000
  0.000000  0.000000  0.110500      6.000000
 -0.027625  0.027625  0.138125     24.000000
 -0.055250  0.055250  0.165750     24.000000
 -0.082875  0.082875  0.193376     24.000000
  0.165750 -0.165750 -0.055250     24.000000
  0.138125 -0.138125 -0.027625     24.000000
  0.110500 -0.110500  0.000000     12.000000
  0.000000  0.000000  0.165750      6.000000
 -0.027625  0.027625  0.193376     24.000000
 -0.055250  0.055250  0.221001     24.000000
  0.193376 -0.193376 -0.027625     24.000000
  0.165750 -0.165750  0.000000     12.000000
  0.000000  0.000000  0.221001      6.000000
 -0.027625  0.027625  0.248626     24.000000
  0.221001 -0.221001  0.000000     12.000000
  0.000000  0.000000  0.276251      3.000000
  0.000000  0.055250  0.110500     24.000000
 -0.027625  0.082875  0.138125     48.000000
 -0.055250  0.110500  0.165750     48.000000
  0.193376 -0.138125 -0.082875     24.000000
  0.000000  0.055250  0.165750     24.000000
 -0.027625  0.082875  0.193376     48.000000
  0.221001 -0.165750 -0.055250     48.000000
  0.193376 -0.138125 -0.027625     48.000000
  0.165750 -0.110500 -0.000000     24.000000
  0.000000  0.055250  0.221001     24.000000
  0.248626 -0.193376 -0.027625     48.000000
  0.221001 -0.165750 -0.000000     24.000000
  0.276251 -0.221001  0.000000     12.000000
  0.276251 -0.165750 -0.055250     24.000000
  0.248626 -0.138125 -0.027625     24.000000
  0.276251 -0.165750 -0.000000     12.000000

 SYSTEM =  Cu FCC
 POSCAR =  Copper  [FCC,FCC,cF4] (STD_PRIM doi:10.1

 Startparameter for this run:
   NWRITE =      2    write-flag & timer
   PREC   = accura    normal or accurate (medium, high low for compatibility)
   ISTART =      0    job   : 0-new  1-cont  2-samecut
   ICHARG =      2    charge: 1-file 2-atom 10-const
   ISPIN  =      1    spin polarized calculation?
   LNONCOLLINEAR =      F non collinear calculations
   LSORBIT =      F    spin-orbit coupling
   INIWAV =      1    electr: 0-lowe 1-rand  2-diag
   LASPH  =      F    aspherical Exc in radial PAW
 Electronic Relaxation 1
   ENCUT  =  520.0 eV  38.22 Ry    6.18 a.u.   4.76  4.76  4.76*2*pi/ulx,y,z
   ENINI  =  520.0     initial cutoff
   ENAUG  =  587.0 eV  augmentation charge cutoff
   NELM   =     60;   NELMIN=  2; NELMDL= -5     # of ELM steps
   EDIFF  = 0.1E-07   stopping-criterion for ELM
   LREAL  =      F    real-space projection
   NLSPLINE    = F    spline interpolate recip. space projectors
   LCOMPAT=      F    compatible to vasp.4.4
   GGA_COMPAT  = T    GGA compatible to vasp.4.4-vasp.4.6
   LMAXPAW     = -100 max onsite density
   LMAXMIX     =    2 max onsite mixed and CHGCAR
   VOSKOWN=      0    Vosko Wilk Nusair interpolation
   ROPT   =    0.00000
 Ionic relaxation
   EDIFFG = 0.1E-06   stopping-criterion for IOM
   NSW    =    100    number of steps for IOM
   NBLOCK =      1;   KBLOCK =    100    inner block; outer block
   IBRION =      2    ionic relax: 0-MD 1-quasi-New 2-CG
   NFREE  =      1    steps in history (QN), initial steepest desc. (CG)
   ISIF   =      3    stress and relaxation
   IWAVPR =     11    prediction:  0-non 1-charg 2-wave 3-comb
   ISYM   =      2    0-nonsym 1-usesym 2-fastsym
   LCORR  =      T    Harris-Foulkes like correction to forces

   POTIM  = 0.5000    time-step for ionic-motion
   TEIN   =    0.0    initial temperature
   TEBEG  =    0.0;   TEEND  =   0.0 temperature during run
   SMASS  =  -3.00    Nose mass-parameter (am)
   estimated Nose-frequenzy (Omega)   =  0.10E-29 period in steps = 0.13E+47 mass=  -0.150E-27a.u.
   SCALEE = 1.0000    scale energy and forces
   NPACO  =    256;   APACO  = 10.0  distance and # of slots for P.C.
   PSTRESS=    0.0 pullay stress

  Mass of Ions in am
   POMASS =  63.55
  Ionic Valenz
   ZVAL   =  11.00
  Atomic Wigner-Seitz radii
  virtual crystal weights
   VCA    =   1.00
   NELECT =      11.0000    total number of electrons
   NUPDOWN=      -1.0000    fix difference up-down

 DOS related values:
   EMIN   =  10.00;   EMAX   =-10.00  energy-range for DOS
   EFERMI =   0.00;   METHOD = LEGACY
   ISMEAR =     0;   SIGMA  =   0.03  broadening in eV -4-tet -1-fermi 0-gaus

 Electronic relaxation 2 (details)
   IALGO  =     38    algorithm
   LDIAG  =      T    sub-space diagonalisation (order eigenvalues)
   LSUBROT=      F    optimize rotation matrix (better conditioning)
[...]
   0.40000000  0.30000000  0.00000000       0.024
   0.50000000  0.30000000  0.00000000       0.024
  -0.40000000  0.30000000  0.00000000       0.024
  -0.30000000  0.30000000  0.00000000       0.012
   0.40000000  0.40000000  0.00000000       0.006
   0.50000000  0.40000000  0.00000000       0.024
  -0.40000000  0.40000000  0.00000000       0.012
   0.50000000  0.50000000  0.00000000       0.003
   0.30000000  0.20000000  0.10000000       0.024
   0.40000000  0.20000000  0.10000000       0.048
   0.50000000  0.20000000  0.10000000       0.048
  -0.40000000  0.20000000  0.10000000       0.024
   0.40000000  0.30000000  0.10000000       0.024
   0.50000000  0.30000000  0.10000000       0.048
  -0.40000000  0.30000000  0.10000000       0.048
  -0.30000000  0.30000000  0.10000000       0.048
  -0.20000000  0.30000000  0.10000000       0.024
   0.50000000  0.40000000  0.10000000       0.024
  -0.40000000  0.40000000  0.10000000       0.048
  -0.30000000  0.40000000  0.10000000       0.024
  -0.40000000  0.50000000  0.10000000       0.012
  -0.40000000  0.40000000  0.20000000       0.024
  -0.30000000  0.40000000  0.20000000       0.024
  -0.30000000  0.50000000  0.20000000       0.012

 position of ions in fractional coordinates (direct lattice)
   0.00000000  0.00000000  0.00000000

 position of ions in cartesian coordinates  (Angst):
   0.00000000  0.00000000  0.00000000

 k-point   1 :   0.0000 0.0000 0.0000  plane waves:     331
 k-point   2 :   0.1000 0.0000 0.0000  plane waves:     328
 k-point   3 :   0.2000 0.0000 0.0000  plane waves:     320
 k-point   4 :   0.3000 0.0000 0.0000  plane waves:     314
 k-point   5 :   0.4000 0.0000 0.0000  plane waves:     323
 k-point   6 :   0.5000 0.0000 0.0000  plane waves:     332
 k-point   7 :   0.1000 0.1000 0.0000  plane waves:     327
 k-point   8 :   0.2000 0.1000 0.0000  plane waves:     317
 k-point   9 :   0.3000 0.1000 0.0000  plane waves:     318
 k-point  10 :   0.4000 0.1000 0.0000  plane waves:     325
 k-point  11 :   0.5000 0.1000 0.0000  plane waves:     320
 k-point  12 :  -0.4000 0.1000 0.0000  plane waves:     321
 k-point  13 :  -0.3000 0.1000 0.0000  plane waves:     316
 k-point  14 :  -0.2000 0.1000 0.0000  plane waves:     316
 k-point  15 :  -0.1000 0.1000 0.0000  plane waves:     317
 k-point  16 :   0.2000 0.2000 0.0000  plane waves:     311
 k-point  17 :   0.3000 0.2000 0.0000  plane waves:     316
 k-point  18 :   0.4000 0.2000 0.0000  plane waves:     324
 k-point  19 :   0.5000 0.2000 0.0000  plane waves:     319
 k-point  20 :  -0.4000 0.2000 0.0000  plane waves:     315
 k-point  21 :  -0.3000 0.2000 0.0000  plane waves:     317
 k-point  22 :  -0.2000 0.2000 0.0000  plane waves:     323
 k-point  23 :   0.3000 0.3000 0.0000  plane waves:     315
 k-point  24 :   0.4000 0.3000 0.0000  plane waves:     319
 k-point  25 :   0.5000 0.3000 0.0000  plane waves:     317
 k-point  26 :  -0.4000 0.3000 0.0000  plane waves:     317
 k-point  27 :  -0.3000 0.3000 0.0000  plane waves:     319
 k-point  28 :   0.4000 0.4000 0.0000  plane waves:     322
 k-point  29 :   0.5000 0.4000 0.0000  plane waves:     322
 k-point  30 :  -0.4000 0.4000 0.0000  plane waves:     322
 k-point  31 :   0.5000 0.5000 0.0000  plane waves:     326
 k-point  32 :   0.3000 0.2000 0.1000  plane waves:     320
 k-point  33 :   0.4000 0.2000 0.1000  plane waves:     318
 k-point  34 :   0.5000 0.2000 0.1000  plane waves:     318
 k-point  35 :  -0.4000 0.2000 0.1000  plane waves:     318
 k-point  36 :   0.4000 0.3000 0.1000  plane waves:     323
 k-point  37 :   0.5000 0.3000 0.1000  plane waves:     322
 k-point  38 :  -0.4000 0.3000 0.1000  plane waves:     319
 k-point  39 :  -0.3000 0.3000 0.1000  plane waves:     321
 k-point  40 :  -0.2000 0.3000 0.1000  plane waves:     318
 k-point  41 :   0.5000 0.4000 0.1000  plane waves:     320
 k-point  42 :  -0.4000 0.4000 0.1000  plane waves:     317
 k-point  43 :  -0.3000 0.4000 0.1000  plane waves:     325
 k-point  44 :  -0.4000 0.5000 0.1000  plane waves:     320
 k-point  45 :  -0.4000 0.4000 0.2000  plane waves:     317
 k-point  46 :  -0.3000 0.4000 0.2000  plane waves:     318
 k-point  47 :  -0.3000 0.5000 0.2000  plane waves:     318

 maximum and minimum number of plane-waves per node :       332      311

 maximum number of plane-waves:       332
 maximum index in each direction:
   IXMAX=    5   IYMAX=    4   IZMAX=    4
   IXMIN=   -5   IYMIN=   -5   IZMIN=   -4

 serial   3D FFT for wavefunctions
 parallel 3D FFT for charge:
    minimum data exchange during FFTs selected (reduces bandwidth)

 Broyden mixing: mesh for mixing (old mesh)
   NGX =  9   NGY =  9   NGZ =  9
  (NGX  = 40   NGY  = 40   NGZ  = 40)
  gives a total of    729 points

 initial charge density was supplied:
 charge density of overlapping atoms calculated
 number of electron      11.0000000 magnetization
 keeping initial charge density in first step

 Maximum index for augmentation-charges         4785 (set IRDMAX)

 First call to EWALD:  gamma=   0.777
 Maximum number of real-space cells 3x 3x 3
 Maximum number of reciprocal cells 3x 3x 3

--------------------------------------- Ionic step        1  -------------------------------------------

--------------------------------------- Iteration      1(   1)  ---------------------------------------

 eigenvalue-minimisations  :  1304
 total energy-change (2. order) : 0.4077529E+02  (-0.5407398E+03)
 number of electron      11.0000000 magnetization
 augmentation part       11.0000000 magnetization

 Free energy of the ion-electron system (eV)
  alpha Z        PSCENC =        61.67121421
  Ewald energy   TEWEN  =     -1103.42076159
  -Hartree energ DENC   =      -362.70362657
  -exchange      EXHF   =         0.00000000
  -V(xc)+E(xc)   XCENC  =        45.77379819
  PAW double counting   =      1228.20665988    -1334.04846713
  entropy T*S    EENTRO =        -0.00072187
  eigenvalues    EBANDS =       114.32014269
  atomic energy  EATOM  =      1390.97705399
  Solvation  Ediel_sol  =         0.00000000
  free energy    TOTEN  =        40.77529181 eV

  energy without entropy =       40.77601368  energy(sigma->0) =       40.77565274

[...]

 eigenvalue-minimisations  :  1148
 total energy-change (2. order) :-0.4399440E+02  (-0.4024703E+02)
 number of electron      11.0000000 magnetization
 augmentation part       11.0000000 magnetization

[...]

 Broyden mixing:
  rms(total) = 0.76503E+00    rms(broyden)= 0.76502E+00
  rms(prec ) = 0.29140E+01
  weight for this iteration     100.00

[...]

 eigenvalues of (default mixing * dielectric matrix)
  average eigenvalue GAMMA=   0.6613
  0.6613

[...]

 average (electrostatic) potential at core
  the test charge radii are     0.9430
  (the norm of the test charge is              1.0000)
       1 -63.7358

 E-fermi :   7.4128     XC(G=0): -12.7019     alpha+bet :-13.3696

 Fermi energy:         7.4127862024

 k-point     1 :       0.0000    0.0000    0.0000
  band No.  band energies     occupation
      1      -1.7849      2.00000
      2       4.5234      2.00000
      3       4.5234      2.00000
      4       4.5234      2.00000
      5       5.3461      2.00000
      6       5.3461      2.00000
      7      30.0969      0.00000
      8      32.7099      0.00000
      9      32.7099      0.00000
     10      32.7099      0.00000
     11      35.1984      0.00000
     12      35.1984      0.00000

[...]

 soft charge-density along one line, spin component           1
         0         1         2         3         4         5         6         7         8         9
 total charge-density along one line

------------------------ aborting loop because EDIFF is reached ----------------------------------------

  FORCE on cell =-STRESS in cart. coord.  units (eV):
  Direction    XX          YY          ZZ          XY          YZ          ZX
  Alpha Z    61.67121    61.67121    61.67121
  Ewald    -367.80693  -367.80693  -367.80693     0.00000    -0.00000    -0.00000
  Hartree   113.13948   113.13948   113.13948     0.00000     0.00000     0.00000
  E(xc)     -64.33591   -64.33591   -64.33591    -0.00000    -0.00000    -0.00000
  Local      93.86723    93.86723    93.86723     0.00005     0.00005     0.00005
  n-local   -20.85872   -19.87181   -22.36665     1.50155    -1.66595     1.08336
  augment    94.83606    94.83606    94.83606    -0.00002    -0.00002    -0.00002
  Kinetic    88.77853    88.36619    92.28342    -1.97567     2.71227    -2.20405
  Fock        0.00000     0.00000     0.00000     0.00000     0.00000     0.00000
  Total       0.14813     0.14813     0.14813     0.00000    -0.00000     0.00000
  in kB      20.01383    20.01383    20.01383     0.00000    -0.00000     0.00000

 VOLUME and BASIS-vectors are now :
  energy-cutoff  :      520.00
  volume of cell :       11.86
      direct lattice vectors                 reciprocal lattice vectors
     0.000000000  1.809949994  1.809949994    -0.276250726  0.276250726  0.276250726
     1.809949994  0.000000000  1.809949994     0.276250726 -0.276250726  0.276250726
     1.809949994  1.809949994  0.000000000     0.276250726  0.276250726 -0.276250726

[...]

 FORCES acting on ions
    electron-ion (+dipol)            ewald-force                    non-local-force                 convergence-correction
   -.125E-13 -.285E-13 -.200E-13   -.243E-14 0.202E-15 0.184E-14   0.000E+00 0.000E+00 0.000E+00   0.280E-13 -.408E-14 0.194E-13
   -.125E-13 -.285E-13 -.200E-13   -.243E-14 0.202E-15 0.184E-14   0.000E+00 0.000E+00 0.000E+00   0.280E-13 -.408E-14 0.194E-13

 POSITION                                       TOTAL-FORCE (eV/Angst)
      0.00000      0.00000      0.00000        -0.000000      0.000000     -0.000000
    total drift:                                0.000000     -0.000000      0.000000

  FREE ENERGIE OF THE ION-ELECTRON SYSTEM (eV)
  free  energy   TOTEN  =        -3.71237366 eV

  energy  without entropy=       -3.71202270  energy(sigma->0) =       -3.71219818

 stress matrix after NEB project (eV)
      0.14813     -0.00000      0.00000
      0.00000      0.14813      0.00000
     -0.00000     -0.00000      0.14813
  FORCES: max atom, RMS     0.000000    0.000000
  FORCE total and by dimension    0.000000    0.000000
  Stress total and by dimension    0.256572    0.148132

[...]

 d Force = 0.0000000E+00[ 0.000E+00, 0.000E+00]  d Energy = 0.7003613E-03-0.700E-03
 d Force = 0.0000000E+00[ 0.000E+00, 0.000E+00]  d Ewald  =-0.7829413E+01 0.783E+01

 stress matrix after NEB project (eV)
     -0.07857      0.00000     -0.00000
      0.00000     -0.07857      0.00000
      0.00000      0.00000     -0.07857
  FORCES: max atom, RMS     0.000000    0.000000
  FORCE total and by dimension    0.000000    0.000000
  Stress total and by dimension    0.136094    0.078574
 Steepest descent step on ions:
 trial-energy change:   -0.000700  1 .order   -0.000746   -0.003176    0.001685
  (g-gl).g = 0.318E-02      g.g   = 0.318E-02  gl.gl    = 0.000E+00
 g(Force)  = 0.938E-63   g(Stress)= 0.318E-02 ortho     = 0.000E+00
 gamma     =   0.00000
 trial     =   1.00000
 opt step  =   0.64055  (harmonic =   0.65341) maximal distance =0.00000000
 next E    =    -3.713379   (d E  =  -0.00101)

--------------------------------------- Ionic step        3  -------------------------------------------

[...]

 eigenvalue-minimisations  :  1572
 total energy-change (2. order) : 0.1225949E-05  (-0.1022298E-06)
 number of electron      10.9999996 magnetization
 augmentation part        7.0142579 magnetization

[...]

 Broyden mixing:
  rms(total) = 0.89841E-06    rms(broyden)= 0.89788E-06
  rms(prec ) = 0.23013E-05
  weight for this iteration     100.00

 eigenvalues of (default mixing * dielectric matrix)
  average eigenvalue GAMMA=   1.6215
  2.6312  2.6004  2.5069  0.6285  1.0285  1.0285  0.9265

[...]

--------------------------------------- Iteration      3(   9)  ---------------------------------------

 eigenvalue-minimisations  :   572
 total energy-change (2. order) :-0.3741889E-08  (-0.5548511E-11)
 number of electron      10.9999996 magnetization
 augmentation part        7.0142589 magnetization

 Free energy of the ion-electron system (eV)
  alpha Z        PSCENC =        60.83200522
  Ewald energy   TEWEN  =     -1098.39284620
  -Hartree energ DENC   =      -342.25896940
  -exchange      EXHF   =         0.00000000
  -V(xc)+E(xc)   XCENC  =        44.63999115
  PAW double counting   =      1310.89901894    -1418.69133400
  entropy T*S    EENTRO =        -0.00034958
  eigenvalues    EBANDS =        48.28205134
  atomic energy  EATOM  =      1390.97705399
  Solvation  Ediel_sol  =         0.00000000
  free energy    TOTEN  =        -3.71337854 eV

  energy without entropy =       -3.71302895  energy(sigma->0) =       -3.71320374

 average (electrostatic) potential at core
  the test charge radii are     0.9430
  (the norm of the test charge is              1.0000)
       1 -63.8727

 E-fermi :   7.2565     XC(G=0): -12.6227     alpha+bet :-13.1877

 Fermi energy:         7.2564889344

[...]

 k-point    47 :      -0.3000    0.5000    0.2000
  band No.  band energies     occupation
      1       3.2294      2.00000
      2       3.5880      2.00000
      3       4.2962      2.00000
      4       5.2383      2.00000
      5       5.8891      2.00000
      6      12.1752      0.00000
      7      14.9473      0.00000
      8      15.1848      0.00000
      9      16.6158      0.00000
     10      32.5288      0.00000
     11      34.8879      0.00000
     12      38.3559      0.00000

 soft charge-density along one line, spin component           1
         0         1         2         3         4         5         6         7         8         9
 total charge-density along one line

------------------------ aborting loop because EDIFF is reached ----------------------------------------

  FORCE on cell =-STRESS in cart. coord.  units (eV):
  Direction    XX          YY          ZZ          XY          YZ          ZX
  Alpha Z    60.83201    60.83201    60.83201
  Ewald    -366.13096  -366.13096  -366.13096     0.00000     0.00000    -0.00000
  Hartree   114.08632   114.08632   114.08632     0.00000     0.00000     0.00000
  E(xc)     -64.30920   -64.30920   -64.30920    -0.00000    -0.00000    -0.00000
  Local      92.24685    92.24685    92.24685     0.00005     0.00005     0.00005
  n-local   -21.08507   -20.10609   -22.58718     1.49142    -1.65671     1.08031
  augment    94.82679    94.82679    94.82679    -0.00003    -0.00003    -0.00003
  Kinetic    88.69028    88.28313    92.15253    -1.95628     2.68409    -2.17778
  Fock        0.00000     0.00000     0.00000     0.00000     0.00000     0.00000
  Total       0.00101     0.00101     0.00101     0.00000     0.00000     0.00000
  in kB       0.13401     0.13401     0.13401     0.00000     0.00000     0.00000

 VOLUME and BASIS-vectors are now :
  energy-cutoff  :      520.00
  volume of cell :       12.02
      direct lattice vectors                 reciprocal lattice vectors
     0.000000000  1.818235077  1.818235077    -0.274991945  0.274991945  0.274991945
     1.818235077 -0.000000000  1.818235077     0.274991945 -0.274991945  0.274991945
     1.818235077  1.818235077  0.000000000     0.274991945  0.274991945 -0.274991945

  length of vectors
     2.571372705  2.571372705  2.571372705     0.476300020  0.476300020  0.476300020

 FORCES acting on ions
    electron-ion (+dipol)            ewald-force                    non-local-force                 convergence-correction
   -.570E-15 -.124E-13 -.275E-14   0.110E-15 -.207E-14 -.573E-14   0.000E+00 -.323E-26 -.565E-26   0.818E-14 0.102E-13 0.200E-13
   -.570E-15 -.124E-13 -.275E-14   0.110E-15 -.207E-14 -.573E-14   0.000E+00 -.323E-26 -.565E-26   0.818E-14 0.102E-13 0.200E-13

 POSITION                                       TOTAL-FORCE (eV/Angst)
     -0.00000      0.00000     -0.00000         0.000000      0.000000     -0.000000
    total drift:                                0.000000     -0.000000      0.000000

  FREE ENERGIE OF THE ION-ELECTRON SYSTEM (eV)
  free  energy   TOTEN  =        -3.71337854 eV

  energy  without entropy=       -3.71302895  energy(sigma->0) =       -3.71320374

 d Force = 0.0000000E+00[ 0.000E+00, 0.000E+00]  d Energy = 0.3045184E-03-0.305E-03
 d Force = 0.0000000E+00[ 0.000E+00, 0.000E+00]  d Ewald  = 0.2801498E+01-0.280E+01

 stress matrix after NEB project (eV)
      0.00101      0.00000      0.00000
      0.00000      0.00101     -0.00000
     -0.00000      0.00000      0.00101
  FORCES: max atom, RMS     0.000000    0.000000
  FORCE total and by dimension    0.000000    0.000000
  Stress total and by dimension    0.001742    0.001006

 reached required accuracy - stopping structural energy minimisation