 vasp.6.4.2 20Jul23 (build Oct 16 2024 22:45:58) complex

 executed on             LinuxIFC date 2025.02.15  11:43:48

 INCAR:
   SYSTEM = Cu FCC
   PREC = Accurate
   EDIFF = 1E-10
   EDIFFG = -1E-5
   ISMEAR = 0
   SIGMA = 0.03
   GGA = PE
   ENCUT = 520
   NSW = 0
   IBRION = -1
   ISIF = 0
   LWAVE = .FALSE.
   LCHARG = .FALSE.
   LORBIT = 11

 POTCAR:    PAW_PBE Cu 22Jun2005
|           W    W    AA    RRRRR   N    N  II  N    N   GGGG   !!!           |
|           W    W   A  A   R    R  NN   N  II  NN   N  G    G  !!!           |
|           W    W  A    A  R    R  N N  N  II  N N  N  G       !!!           |
|           W WW W  AAAAAA  RRRRR   N  N N  II  N  N N  G  GGG   !            |
|           WW  WW  A    A  R   R   N   NN  II  N   NN  G    G                |
|           W    W  A    A  R    R  N    N  II  N    N   GGGG   !!!           |
|     For optimal performance we recommend to set                             |
|       NCORE = 2 up to number-of-cores-per-socket                            |
|     This setting can greatly improve the performance of VASP for DFT.       |
|     The default, NCORE=1 might be grossly inefficient on modern             |
|     multi-core architectures or massively parallel machines. Do your        |
|     Unfortunately you need to use the default for GW and RPA                |
|     calculations (for HF NCORE is supported but not extensively tested      |
|     yet).                                                                   |

   TITEL  = PAW_PBE Cu 22Jun2005
   POMASS =   63.546; ZVAL   =   11.000    mass and valenz
   ENMAX  =  295.446; ENMIN  =  221.585 eV

  PAW_PBE Cu 22Jun2005                  :

 POSCAR: Copper  [FCC,FCC,cF4] (STD_PRIM doi:10.1
  positions in direct lattice
  velocities in cartesian coordinates
 exchange correlation table for  LEXCH =        8
   RHO(1)=    0.500       N(1)  =     2000
   RHO(2)=  100.500       N(2)  =     4000

 VTST: version 4.1, (05/19/21)

 CHAIN: initializing optimizer

 OPT: Using VASP Dynamics algorithm
 CHAIN: Read ICHAIN            0

 POSCAR: Copper  [FCC,FCC,cF4] (STD_PRIM doi:10.1
  positions in direct lattice
  velocities in cartesian coordinates

 ion  position               nearest neighbor table
   1  0.000  0.000  0.000-

  LATTYP: Found a face centered cubic cell.
 ALAT       =     3.6368206731

  Lattice vectors:

 A1 = (   0.0000000000,   1.8184103366,   1.8184103366)
 A2 = (   1.8184103366,   0.0000000000,   1.8184103366)
 A3 = (   1.8184103366,   1.8184103366,   0.0000000000)

Analysis of symmetry for initial positions (statically):
 Subroutine PRICEL returns:
 Original cell was already a primitive cell.

 Routine SETGRP: Setting up the symmetry group for a
 face centered cubic supercell.

 Subroutine GETGRP returns: Found 48 space group operations
 (whereof 48 operations were pure point group operations)
 out of a pool of 48 trial point group operations.

The static configuration has the point symmetry O_h .

Analysis of symmetry for dynamics (positions and initial velocities):
 Subroutine PRICEL returns:
 Original cell was already a primitive cell.

 Routine SETGRP: Setting up the symmetry group for a
 face centered cubic supercell.

 Subroutine GETGRP returns: Found 48 space group operations
 (whereof 48 operations were pure point group operations)
 out of a pool of 48 trial point group operations.

The dynamic configuration has the point symmetry O_h .

 Subroutine INISYM returns: Found 48 space group operations
 (whereof 48 operations are pure point group operations),
 and found     1 'primitive' translations

                                     Primitive cell

  volume of cell :      12.0256

  direct lattice vectors                    reciprocal lattice vectors
     0.000000000  1.818410337  1.818410337    -0.274965441  0.274965441  0.274965441
     1.818410337  0.000000000  1.818410337     0.274965441 -0.274965441  0.274965441
     1.818410337  1.818410337  0.000000000     0.274965441  0.274965441 -0.274965441

  length of vectors
     2.571620560  2.571620560  2.571620560     0.476254114  0.476254114  0.476254114

  position of ions in fractional coordinates (direct lattice)
     0.000000000  0.000000000  0.000000000

  ion indices of the primitive-cell ions
   primitive index   ion index
                 1           1

 KPOINTS: KPOINTS

Automatic generation of k-mesh.
 Grid dimensions read from file:
 generate k-points for:   30   30   30

 Generating k-lattice:

  Cartesian coordinates                     Fractional coordinates (reciprocal lattice)
    -0.009165515  0.009165515  0.009165515     0.033333333  0.000000000  0.000000000
     0.009165515 -0.009165515  0.009165515     0.000000000  0.033333333  0.000000000
     0.009165515  0.009165515 -0.009165515     0.000000000  0.000000000  0.033333333

  Length of vectors
     0.015875137  0.015875137  0.015875137

  Shift w.r.t. Gamma in fractional coordinates (k-lattice)
     0.000000000  0.000000000  0.000000000

 Subroutine IBZKPT returns following result:

 Found    752 irreducible k-points:

 Following reciprocal coordinates:
            Coordinates               Weight
  0.000000  0.000000  0.000000      1.000000
  0.033333  0.000000  0.000000      8.000000
  0.066667  0.000000  0.000000      8.000000
  0.100000  0.000000  0.000000      8.000000
  0.133333  0.000000  0.000000      8.000000
  0.166667  0.000000  0.000000      8.000000
  0.200000  0.000000  0.000000      8.000000
  0.233333  0.000000  0.000000      8.000000
  0.266667  0.000000  0.000000      8.000000
  0.300000  0.000000  0.000000      8.000000
  0.333333  0.000000  0.000000      8.000000
  0.366667  0.000000  0.000000      8.000000
  0.400000  0.000000  0.000000      8.000000
  0.433333  0.000000  0.000000      8.000000
  0.466667  0.000000  0.000000      8.000000
  0.500000  0.000000  0.000000      4.000000
  0.033333  0.033333  0.000000      6.000000
  0.066667  0.033333  0.000000     24.000000
  0.100000  0.033333  0.000000     24.000000
  0.133333  0.033333  0.000000     24.000000
  0.166667  0.033333  0.000000     24.000000
  0.200000  0.033333  0.000000     24.000000
  0.233333  0.033333  0.000000     24.000000
  0.266667  0.033333  0.000000     24.000000
  0.300000  0.033333  0.000000     24.000000
  0.333333  0.033333  0.000000     24.000000
  0.366667  0.033333  0.000000     24.000000
  0.400000  0.033333  0.000000     24.000000
  0.433333  0.033333  0.000000     24.000000
  0.466667  0.033333  0.000000     24.000000
  0.500000  0.033333  0.000000     24.000000
 -0.466667  0.033333  0.000000     24.000000
 -0.433333  0.033333  0.000000     24.000000
 -0.400000  0.033333  0.000000     24.000000
 -0.366667  0.033333  0.000000     24.000000
 -0.333333  0.033333  0.000000     24.000000
 -0.300000  0.033333  0.000000     24.000000
 -0.266667  0.033333  0.000000     24.000000
 -0.233333  0.033333  0.000000     24.000000
 -0.200000  0.033333  0.000000     24.000000
 -0.166667  0.033333  0.000000     24.000000
 -0.133333  0.033333  0.000000     24.000000
 -0.100000  0.033333  0.000000     24.000000
 -0.066667  0.033333  0.000000     24.000000
 -0.033333  0.033333  0.000000     12.000000
  0.066667  0.066667  0.000000      6.000000
  0.100000  0.066667  0.000000     24.000000
  0.133333  0.066667  0.000000     24.000000
  0.166667  0.066667  0.000000     24.000000
  0.200000  0.066667  0.000000     24.000000
  0.233333  0.066667  0.000000     24.000000
  0.266667  0.066667  0.000000     24.000000
  0.300000  0.066667  0.000000     24.000000
  0.333333  0.066667  0.000000     24.000000
  0.366667  0.066667  0.000000     24.000000
  0.400000  0.066667  0.000000     24.000000
  0.433333  0.066667  0.000000     24.000000
  0.466667  0.066667  0.000000     24.000000
  0.500000  0.066667  0.000000     24.000000
 -0.466667  0.066667  0.000000     24.000000
[...]
 -0.366667  0.400000  0.200000     48.000000
 -0.333333  0.400000  0.200000     48.000000
 -0.300000  0.400000  0.200000     24.000000
 -0.366667  0.433333  0.200000     24.000000
 -0.333333  0.433333  0.200000     48.000000
 -0.300000  0.433333  0.200000     48.000000
 -0.266667  0.433333  0.200000     48.000000
 -0.233333  0.433333  0.200000     24.000000
 -0.333333  0.466667  0.200000     24.000000
 -0.300000  0.466667  0.200000     48.000000
 -0.266667  0.466667  0.200000     24.000000
 -0.300000  0.500000  0.200000     12.000000
 -0.300000  0.466667  0.233333     24.000000
 -0.266667  0.466667  0.233333     24.000000
 -0.266667  0.500000  0.233333     12.000000

 Following cartesian coordinates:
            Coordinates               Weight
  0.000000  0.000000  0.000000      1.000000
 -0.009166  0.009166  0.009166      8.000000
 -0.018331  0.018331  0.018331      8.000000
 -0.027497  0.027497  0.027497      8.000000
 -0.036662  0.036662  0.036662      8.000000
 -0.045828  0.045828  0.045828      8.000000
 -0.054993  0.054993  0.054993      8.000000
 -0.064159  0.064159  0.064159      8.000000
 -0.073324  0.073324  0.073324      8.000000
 -0.082490  0.082490  0.082490      8.000000
 -0.091655  0.091655  0.091655      8.000000
 -0.100821  0.100821  0.100821      8.000000
 -0.109986  0.109986  0.109986      8.000000
 -0.119152  0.119152  0.119152      8.000000
 -0.128317  0.128317  0.128317      8.000000
 -0.137483  0.137483  0.137483      4.000000
  0.000000  0.000000  0.018331      6.000000
 -0.009166  0.009166  0.027497     24.000000
 -0.018331  0.018331  0.036662     24.000000
 -0.027497  0.027497  0.045828     24.000000
 -0.036662  0.036662  0.054993     24.000000
 -0.045828  0.045828  0.064159     24.000000
 -0.054993  0.054993  0.073324     24.000000
 -0.064159  0.064159  0.082490     24.000000
 -0.073324  0.073324  0.091655     24.000000
 -0.082490  0.082490  0.100821     24.000000
 -0.091655  0.091655  0.109986     24.000000
 -0.100821  0.100821  0.119152     24.000000
 -0.109986  0.109986  0.128317     24.000000
 -0.119152  0.119152  0.137483     24.000000
 -0.128317  0.128317  0.146648     24.000000
  0.137483 -0.137483 -0.119152     24.000000
  0.128317 -0.128317 -0.109986     24.000000
  0.119152 -0.119152 -0.100821     24.000000
  0.109986 -0.109986 -0.091655     24.000000
  0.100821 -0.100821 -0.082490     24.000000
  0.091655 -0.091655 -0.073324     24.000000
  0.082490 -0.082490 -0.064159     24.000000
  0.073324 -0.073324 -0.054993     24.000000
  0.064159 -0.064159 -0.045828     24.000000
  0.054993 -0.054993 -0.036662     24.000000
  0.045828 -0.045828 -0.027497     24.000000
  0.036662 -0.036662 -0.018331     24.000000
  0.027497 -0.027497 -0.009166     24.000000
  0.018331 -0.018331  0.000000     12.000000
  0.000000  0.000000  0.036662      6.000000
 -0.009166  0.009166  0.045828     24.000000
 -0.018331  0.018331  0.054993     24.000000
 -0.027497  0.027497  0.064159     24.000000
 -0.036662  0.036662  0.073324     24.000000
 -0.045828  0.045828  0.082490     24.000000
 -0.054993  0.054993  0.091655     24.000000
 -0.064159  0.064159  0.100821     24.000000
 -0.073324  0.073324  0.109986     24.000000
 -0.082490  0.082490  0.119152     24.000000
 -0.091655  0.091655  0.128317     24.000000
 -0.100821  0.100821  0.137483     24.000000
[...]
   0.26666667  0.00000000  0.00000000       0.000
   0.30000000  0.00000000  0.00000000       0.000
   0.33333333  0.00000000  0.00000000       0.000
   0.36666667  0.00000000  0.00000000       0.000
   0.40000000  0.00000000  0.00000000       0.000
   0.43333333  0.00000000  0.00000000       0.000
   0.46666667  0.00000000  0.00000000       0.000
   0.50000000  0.00000000  0.00000000       0.000
   0.03333333  0.03333333  0.00000000       0.000
   0.06666667  0.03333333  0.00000000       0.001
   0.10000000  0.03333333  0.00000000       0.001
   0.13333333  0.03333333  0.00000000       0.001
   0.16666667  0.03333333  0.00000000       0.001
   0.20000000  0.03333333  0.00000000       0.001
   0.23333333  0.03333333  0.00000000       0.001
   0.26666667  0.03333333  0.00000000       0.001
   0.30000000  0.03333333  0.00000000       0.001
   0.33333333  0.03333333  0.00000000       0.001
   0.36666667  0.03333333  0.00000000       0.001
   0.40000000  0.03333333  0.00000000       0.001
   0.43333333  0.03333333  0.00000000       0.001
   0.46666667  0.03333333  0.00000000       0.001
   0.50000000  0.03333333  0.00000000       0.001
  -0.46666667  0.03333333  0.00000000       0.001
  -0.43333333  0.03333333  0.00000000       0.001
  -0.40000000  0.03333333  0.00000000       0.001
  -0.36666667  0.03333333  0.00000000       0.001
  -0.33333333  0.03333333  0.00000000       0.001
  -0.30000000  0.03333333  0.00000000       0.001
  -0.26666667  0.03333333  0.00000000       0.001
  -0.23333333  0.03333333  0.00000000       0.001
  -0.20000000  0.03333333  0.00000000       0.001
  -0.16666667  0.03333333  0.00000000       0.001
  -0.13333333  0.03333333  0.00000000       0.001
  -0.10000000  0.03333333  0.00000000       0.001
  -0.06666667  0.03333333  0.00000000       0.001
  -0.03333333  0.03333333  0.00000000       0.000
   0.06666667  0.06666667  0.00000000       0.000
   0.10000000  0.06666667  0.00000000       0.001
   0.13333333  0.06666667  0.00000000       0.001
   0.16666667  0.06666667  0.00000000       0.001
   0.20000000  0.06666667  0.00000000       0.001
   0.23333333  0.06666667  0.00000000       0.001
   0.26666667  0.06666667  0.00000000       0.001
   0.30000000  0.06666667  0.00000000       0.001
   0.33333333  0.06666667  0.00000000       0.001
   0.36666667  0.06666667  0.00000000       0.001
   0.40000000  0.06666667  0.00000000       0.001
   0.43333333  0.06666667  0.00000000       0.001
   0.46666667  0.06666667  0.00000000       0.001
   0.50000000  0.06666667  0.00000000       0.001
  -0.46666667  0.06666667  0.00000000       0.001
[...]
  -0.36666667  0.40000000  0.20000000       0.002
  -0.33333333  0.40000000  0.20000000       0.002
  -0.30000000  0.40000000  0.20000000       0.001
  -0.36666667  0.43333333  0.20000000       0.001
  -0.33333333  0.43333333  0.20000000       0.002
  -0.30000000  0.43333333  0.20000000       0.002
  -0.26666667  0.43333333  0.20000000       0.002
  -0.23333333  0.43333333  0.20000000       0.001
  -0.33333333  0.46666667  0.20000000       0.001
  -0.30000000  0.46666667  0.20000000       0.002
  -0.26666667  0.46666667  0.20000000       0.001
  -0.30000000  0.50000000  0.20000000       0.000
  -0.30000000  0.46666667  0.23333333       0.001
  -0.26666667  0.46666667  0.23333333       0.001
  -0.26666667  0.50000000  0.23333333       0.000

 position of ions in fractional coordinates (direct lattice)
   0.00000000  0.00000000  0.00000000

 position of ions in cartesian coordinates  (Angst):
   0.00000000  0.00000000  0.00000000

 k-point   1 :   0.0000 0.0000 0.0000  plane waves:     331
 k-point   2 :   0.0333 0.0000 0.0000  plane waves:     331
 k-point   3 :   0.0667 0.0000 0.0000  plane waves:     331
 k-point   4 :   0.1000 0.0000 0.0000  plane waves:     329
 k-point   5 :   0.1333 0.0000 0.0000  plane waves:     326
 k-point   6 :   0.1667 0.0000 0.0000  plane waves:     320
 k-point   7 :   0.2000 0.0000 0.0000  plane waves:     320
 k-point   8 :   0.2333 0.0000 0.0000  plane waves:     320
 k-point   9 :   0.2667 0.0000 0.0000  plane waves:     317
 k-point  10 :   0.3000 0.0000 0.0000  plane waves:     317
 k-point  11 :   0.3333 0.0000 0.0000  plane waves:     332
 k-point  12 :   0.3667 0.0000 0.0000  plane waves:     323
 k-point  13 :   0.4000 0.0000 0.0000  plane waves:     323
 k-point  14 :   0.4333 0.0000 0.0000  plane waves:     329
 k-point  15 :   0.4667 0.0000 0.0000  plane waves:     332
 k-point  16 :   0.5000 0.0000 0.0000  plane waves:     332
 k-point  17 :   0.0333 0.0333 0.0000  plane waves:     331
 k-point  18 :   0.0667 0.0333 0.0000  plane waves:     331
 k-point  19 :   0.1000 0.0333 0.0000  plane waves:     330
 k-point  20 :   0.1333 0.0333 0.0000  plane waves:     326
 k-point  21 :   0.1667 0.0333 0.0000  plane waves:     322
 k-point  22 :   0.2000 0.0333 0.0000  plane waves:     320
 k-point  23 :   0.2333 0.0333 0.0000  plane waves:     317
 k-point  24 :   0.2667 0.0333 0.0000  plane waves:     317
 k-point  25 :   0.3000 0.0333 0.0000  plane waves:     321
 k-point  26 :   0.3333 0.0333 0.0000  plane waves:     321
 k-point  27 :   0.3667 0.0333 0.0000  plane waves:     326
 k-point  28 :   0.4000 0.0333 0.0000  plane waves:     326
 k-point  29 :   0.4333 0.0333 0.0000  plane waves:     324
 k-point  30 :   0.4667 0.0333 0.0000  plane waves:     331
 k-point  31 :   0.5000 0.0333 0.0000  plane waves:     332
 k-point  32 :  -0.4667 0.0333 0.0000  plane waves:     332
 k-point  33 :  -0.4333 0.0333 0.0000  plane waves:     330
 k-point  34 :  -0.4000 0.0333 0.0000  plane waves:     328
 k-point  35 :  -0.3667 0.0333 0.0000  plane waves:     324
 k-point  36 :  -0.3333 0.0333 0.0000  plane waves:     322
 k-point  37 :  -0.3000 0.0333 0.0000  plane waves:     321
 k-point  38 :  -0.2667 0.0333 0.0000  plane waves:     321
 k-point  39 :  -0.2333 0.0333 0.0000  plane waves:     320
 k-point  40 :  -0.2000 0.0333 0.0000  plane waves:     318
 k-point  41 :  -0.1667 0.0333 0.0000  plane waves:     322
 k-point  42 :  -0.1333 0.0333 0.0000  plane waves:     322
 k-point  43 :  -0.1000 0.0333 0.0000  plane waves:     327
 k-point  44 :  -0.0667 0.0333 0.0000  plane waves:     329
 k-point  45 :  -0.0333 0.0333 0.0000  plane waves:     331
 k-point  46 :   0.0667 0.0667 0.0000  plane waves:     331
 k-point  47 :   0.1000 0.0667 0.0000  plane waves:     327
 k-point  48 :   0.1333 0.0667 0.0000  plane waves:     325
 k-point  49 :   0.1667 0.0667 0.0000  plane waves:     321
 k-point  50 :   0.2000 0.0667 0.0000  plane waves:     319
 k-point  51 :   0.2333 0.0667 0.0000  plane waves:     319
 k-point  52 :   0.2667 0.0667 0.0000  plane waves:     320
 k-point  53 :   0.3000 0.0667 0.0000  plane waves:     322
 k-point  54 :   0.3333 0.0667 0.0000  plane waves:     325
 k-point  55 :   0.3667 0.0667 0.0000  plane waves:     329
 k-point  56 :   0.4000 0.0667 0.0000  plane waves:     324
 k-point  57 :   0.4333 0.0667 0.0000  plane waves:     326
 k-point  58 :   0.4667 0.0667 0.0000  plane waves:     328
 k-point  59 :   0.5000 0.0667 0.0000  plane waves:     326
 k-point  60 :  -0.4667 0.0667 0.0000  plane waves:     330
[...]
 k-point 738 :  -0.3667 0.4000 0.2000  plane waves:     325
 k-point 739 :  -0.3333 0.4000 0.2000  plane waves:     324
 k-point 740 :  -0.3000 0.4000 0.2000  plane waves:     324
 k-point 741 :  -0.3667 0.4333 0.2000  plane waves:     328
 k-point 742 :  -0.3333 0.4333 0.2000  plane waves:     325
 k-point 743 :  -0.3000 0.4333 0.2000  plane waves:     323
 k-point 744 :  -0.2667 0.4333 0.2000  plane waves:     321
 k-point 745 :  -0.2333 0.4333 0.2000  plane waves:     321
 k-point 746 :  -0.3333 0.4667 0.2000  plane waves:     324
 k-point 747 :  -0.3000 0.4667 0.2000  plane waves:     322
 k-point 748 :  -0.2667 0.4667 0.2000  plane waves:     323
 k-point 749 :  -0.3000 0.5000 0.2000  plane waves:     322
 k-point 750 :  -0.3000 0.4667 0.2333  plane waves:     324
 k-point 751 :  -0.2667 0.4667 0.2333  plane waves:     326
 k-point 752 :  -0.2667 0.5000 0.2333  plane waves:     328

 maximum and minimum number of plane-waves per node :       334      311

 maximum number of plane-waves:       334
 maximum index in each direction:
   IXMAX=    5   IYMAX=    4   IZMAX=    4
   IXMIN=   -5   IYMIN=   -5   IZMIN=   -5

 serial   3D FFT for wavefunctions
 parallel 3D FFT for charge:
    minimum data exchange during FFTs selected (reduces bandwidth)

 Broyden mixing: mesh for mixing (old mesh)
   NGX =  9   NGY =  9   NGZ =  9
  (NGX  = 40   NGY  = 40   NGZ  = 40)
  gives a total of    729 points

 initial charge density was supplied:
 charge density of overlapping atoms calculated
 number of electron      11.0000000 magnetization
 keeping initial charge density in first step

 Maximum index for augmentation-charges         1396 (set IRDMAX)

 First call to EWALD:  gamma=   0.774
 Maximum number of real-space cells 3x 3x 3
 Maximum number of reciprocal cells 3x 3x 3

--------------------------------------- Ionic step        1  -------------------------------------------

--------------------------------------- Iteration      1(   1)  ---------------------------------------

 eigenvalue-minimisations  : 58592
 total energy-change (2. order) :-0.6978547E+00  (-0.6073330E+03)
 number of electron      11.0000000 magnetization
 augmentation part       11.0000000 magnetization

 Free energy of the ion-electron system (eV)
  alpha Z        PSCENC =        60.81441780
  Ewald energy   TEWEN  =     -1098.28698219
  -Hartree energ DENC   =      -365.46790050
  -exchange      EXHF   =         0.00000000
  -V(xc)+E(xc)   XCENC  =        45.73508064
  PAW double counting   =      1228.20665988    -1334.04846713
  entropy T*S    EENTRO =        -0.00021083
  eigenvalues    EBANDS =        71.37249366
  atomic energy  EATOM  =      1390.97705399
  Solvation  Ediel_sol  =         0.00000000
  free energy    TOTEN  =        -0.69785467 eV

  energy without entropy =       -0.69764384  energy(sigma->0) =       -0.69774926

[...]

 Broyden mixing:
  rms(total) = 0.76497E+00    rms(broyden)= 0.76496E+00
  rms(prec ) = 0.29079E+01
  weight for this iteration     100.00

[...]

 eigenvalue-minimisations  : 67072
 total energy-change (2. order) : 0.4992867E+00  (-0.1848423E+01)
 number of electron      10.9999995 magnetization
 augmentation part        7.3218004 magnetization

[...]

 eigenvalues of (default mixing * dielectric matrix)
  average eigenvalue GAMMA=   0.6563
  0.6563

[...]

 eigenvalue-minimisations  : 39552
 total energy-change (2. order) : 0.2374691E-08  (-0.3955278E-13)
 number of electron      10.9999995 magnetization
 augmentation part        7.0139491 magnetization

 Broyden mixing:
  rms(total) = 0.53359E-06    rms(broyden)= 0.53352E-06
  rms(prec ) = 0.17398E-05
  weight for this iteration     100.00

 eigenvalues of (default mixing * dielectric matrix)
  average eigenvalue GAMMA=   1.6574
  2.7558  2.5307  2.5092  2.5092  0.6516  1.0268  0.9673  0.9832  0.9832

[...]

--------------------------------------- Iteration      1(  15)  ---------------------------------------

 eigenvalue-minimisations  : 28160
 total energy-change (2. order) :-0.2660272E-10  (-0.1365289E-12)
 number of electron      10.9999995 magnetization
 augmentation part        7.0139491 magnetization

 Free energy of the ion-electron system (eV)
  alpha Z        PSCENC =        60.81441780
  Ewald energy   TEWEN  =     -1098.28698219
  -Hartree energ DENC   =      -342.26842653
  -exchange      EXHF   =         0.00000000
  -V(xc)+E(xc)   XCENC  =        44.63692587
  PAW double counting   =      1310.63413834    -1418.41549989
  entropy T*S    EENTRO =        -0.00008811
  eigenvalues    EBANDS =        48.18021773
  atomic energy  EATOM  =      1390.97705399
  Solvation  Ediel_sol  =         0.00000000
  free energy    TOTEN  =        -3.72824298 eV

  energy without entropy =       -3.72815487  energy(sigma->0) =       -3.72819893

 average (electrostatic) potential at core
  the test charge radii are     0.9430
  (the norm of the test charge is              1.0000)
       1 -63.8824

 E-fermi :   7.3847     XC(G=0): -12.6215     alpha+bet :-13.1839

 Fermi energy:         7.3847064780

 k-point     1 :       0.0000    0.0000    0.0000
  band No.  band energies     occupation
      1      -1.8509      2.00000
      2       4.3880      2.00000
      3       4.3880      2.00000
      4       4.3880      2.00000
      5       5.1924      2.00000
      6       5.1924      2.00000
      7      29.8131      0.00000
      8      32.3175      0.00000
      9      32.3175      0.00000
     10      32.3175      0.00000
     11      34.7948      0.00000
     12      34.7948      0.00000
     13      34.7948      0.00000
     14      38.5578      0.00000
     15      43.1943      0.00000
     16      43.1943      0.00000
     17      43.1943      0.00000
     18      45.7508      0.00000
     19      45.7508      0.00000
     20      59.3696      0.00000
     21      77.9875      0.00000
     22      77.9875      0.00000
     23      77.9876      0.00000
     24      86.3525      0.00000
     25      86.3525      0.00000
     26      86.3525      0.00000
     27      86.6986      0.00000
     28      86.6986      0.00000
     29      91.1258      0.00000
     30      91.1258      0.00000
     31      91.1258      0.00000
     32      95.8481      0.00000

[...]

 k-point   752 :      -0.2667    0.5000    0.2333
  band No.  band energies     occupation
      1       3.3020      2.00000
      2       3.7838      2.00000
      3       4.0201      2.00000
      4       5.1619      2.00000
      5       5.8792      2.00000
      6      13.0417      0.00000
      7      13.9673      0.00000
      8      15.4917      0.00000
      9      16.1121      0.00000
     10      34.3713      0.00000
     11      36.2287      0.00000
     12      36.3150      0.00000
     13      41.1964      0.00000
     14      53.5699      0.00000
     15      54.2812      0.00000
     16      55.1385      0.00000
     17      58.0892      0.00000
     18      58.9569      0.00000
     19      59.8633      0.00000
     20      59.8908      0.00000
     21      63.5415      0.00000
     22      72.8681      0.00000
     23      74.6850      0.00000
     24      74.7982      0.00000
     25      75.7274      0.00000
     26      78.6781      0.00000
     27      79.1085      0.00000
     28      81.2855      0.00000
     29      81.6951      0.00000
     30      81.7431      0.00000
     31      82.0631      0.00000
     32      83.1136      0.00000

 soft charge-density along one line, spin component           1
         0         1         2         3         4         5         6         7         8         9
 total charge-density along one line

------------------------ aborting loop because EDIFF is reached ----------------------------------------

 total charge

# of ion       s       p       d       tot
    1        0.442   0.370   9.171   9.983

 VOLUME and BASIS-vectors are now :
  energy-cutoff  :      520.00
  volume of cell :       12.03
      direct lattice vectors                 reciprocal lattice vectors
     0.000000000  1.818410337  1.818410337    -0.274965441  0.274965441  0.274965441
     1.818410337  0.000000000  1.818410337     0.274965441 -0.274965441  0.274965441
     1.818410337  1.818410337  0.000000000     0.274965441  0.274965441 -0.274965441

  length of vectors
     2.571620560  2.571620560  2.571620560     0.476254114  0.476254114  0.476254114

 FORCES acting on ions
    electron-ion (+dipol)            ewald-force                    non-local-force                 convergence-correction
   -.117E-13 -.809E-14 0.117E-14   -.176E-14 0.198E-14 -.327E-14   0.808E-27 0.808E-27 0.000E+00   -.567E-14 -.989E-14 -.888E-15
   -.117E-13 -.809E-14 0.117E-14   -.176E-14 0.198E-14 -.327E-14   0.808E-27 0.808E-27 0.000E+00   -.567E-14 -.989E-14 -.888E-15

 POSITION                                       TOTAL-FORCE (eV/Angst)
      0.00000      0.00000      0.00000         0.000000      0.000000     -0.000000
    total drift:                               -0.000000     -0.000000     -0.000000

  FREE ENERGIE OF THE ION-ELECTRON SYSTEM (eV)
  free  energy   TOTEN  =        -3.72824298 eV

  energy  without entropy=       -3.72815487  energy(sigma->0) =       -3.72819893

 stress matrix after NEB project (eV)
      0.00000      0.00000      0.00000
      0.00000      0.00000      0.00000
      0.00000      0.00000      0.00000
  FORCES: max atom, RMS     0.000000    0.000000
  FORCE total and by dimension    0.000000    0.000000
  Stress total and by dimension    0.000000    0.000000

 total charge

# of ion       s       p       d       tot
    1        0.442   0.370   9.171   9.983