 vasp.6.4.2 20Jul23 (build Oct 16 2024 22:45:58) complex

 executed on             LinuxIFC date 2025.01.29  08:49:39

 INCAR:
   SYSTEM = Si FCC
   PREC = Accurate
   EDIFF = 1E-10
   EDIFFG = -1E-5
   ISMEAR = 0
   SIGMA = 0.03
   GGA = PE
   ENCUT = 520
   NSW = 0
   IBRION = -1
   ISIF = 0
   LWAVE = .FALSE.
   ICHARG = 11
   LORBIT = 11

 POTCAR:    PAW_PBE Si 05Jan2001
 POTCAR:    PAW_PBE Si 05Jan2001
   VRHFIN =Si: s2p2

   TITEL  = PAW_PBE Si 05Jan2001
   POMASS =   28.085; ZVAL   =    4.000    mass and valenz
   ENMAX  =  245.345; ENMIN  =  184.009 eV

  PAW_PBE Si 05Jan2001                  :

 POSCAR: Si [FCC,FCC,cF8]
  positions in direct lattice
  velocities in cartesian coordinates
 exchange correlation table for  LEXCH =        8
   RHO(1)=    0.500       N(1)  =     2000
   RHO(2)=  100.500       N(2)  =     4000

 VTST: version 4.1, (05/19/21)

 CHAIN: initializing optimizer

 OPT: Using VASP Dynamics algorithm
 CHAIN: Read ICHAIN            0

 POSCAR: Si [FCC,FCC,cF8]
  positions in direct lattice
  velocities in cartesian coordinates

 ion  position               nearest neighbor table
   1  0.000  0.000  0.000-   2 2.37   2 2.37   2 2.37   2 2.37
   2  0.250  0.250  0.250-   1 2.37   1 2.37   1 2.37   1 2.37

  LATTYP: Found a face centered cubic cell.
 ALAT       =     5.4685839824

  Lattice vectors:

 A1 = (   0.0000000000,   2.7342919912,   2.7342919912)
 A2 = (   2.7342919912,   0.0000000000,   2.7342919912)
 A3 = (   2.7342919912,   2.7342919912,   0.0000000000)

Analysis of symmetry for initial positions (statically):
 Subroutine PRICEL returns:
 Original cell was already a primitive cell.

 Routine SETGRP: Setting up the symmetry group for a
 face centered cubic supercell.

 Subroutine GETGRP returns: Found 48 space group operations
 (whereof 24 operations were pure point group operations)
 out of a pool of 48 trial point group operations.

The static configuration has the point symmetry T_d .
 The point group associated with its full space group is O_h .

Analysis of symmetry for dynamics (positions and initial velocities):
 Subroutine PRICEL returns:
 Original cell was already a primitive cell.

 Routine SETGRP: Setting up the symmetry group for a
 face centered cubic supercell.

 Subroutine GETGRP returns: Found 48 space group operations
 (whereof 24 operations were pure point group operations)
 out of a pool of 48 trial point group operations.

The dynamic configuration has the point symmetry T_d .
 The point group associated with its full space group is O_h .

 Subroutine INISYM returns: Found 48 space group operations
 (whereof 24 operations are pure point group operations),
 and found     1 'primitive' translations

                                     Primitive cell

  volume of cell :      40.8851

  direct lattice vectors                    reciprocal lattice vectors
     0.000000000  2.734291991  2.734291991    -0.182862694  0.182862694  0.182862694
     2.734291991  0.000000000  2.734291991     0.182862694 -0.182862694  0.182862694
     2.734291991  2.734291991  0.000000000     0.182862694  0.182862694 -0.182862694

  length of vectors
     3.866872817  3.866872817  3.866872817     0.316727477  0.316727477  0.316727477

  position of ions in fractional coordinates (direct lattice)
     0.000000000  0.000000000  0.000000000
     0.250000000  0.250000000  0.250000000

  ion indices of the primitive-cell ions
   primitive index   ion index
                 1           1
                 2           2

 KPOINTS: FCC (face-centered cubic) G-X-W-K-G-L-U-

Interpolating k-points between supplied coordinates.

 Line segments in fractional coordinates (reciprocal lattice):
    0.000000  0.000000  0.000000  ...  0.500000  0.000000  0.500000
    0.500000  0.000000  0.500000  ...  0.500000  0.250000  0.750000
    0.500000  0.250000  0.750000  ...  0.375000  0.375000  0.750000
    0.375000  0.375000  0.750000  ...  0.000000  0.000000  0.000000
    0.000000  0.000000  0.000000  ...  0.500000  0.500000  0.500000
    0.500000  0.500000  0.500000  ...  0.625000  0.250000  0.625000
    0.625000  0.250000  0.625000  ...  0.500000  0.250000  0.750000
    0.500000  0.250000  0.750000  ...  0.500000  0.500000  0.500000
    0.500000  0.500000  0.500000  ...  0.375000  0.375000  0.750000
    0.625000  0.250000  0.625000  ...  0.500000  0.000000  0.500000

 Generated    25 points on each line segment, for a total of    250 k-points:

 Following reciprocal coordinates:
            Coordinates               Weight
  0.000000  0.000000  0.000000      0.004000
  0.020833  0.000000  0.020833      0.004000
  0.041667  0.000000  0.041667      0.004000
  0.062500  0.000000  0.062500      0.004000
  0.083333  0.000000  0.083333      0.004000
  0.104167  0.000000  0.104167      0.004000
  0.125000  0.000000  0.125000      0.004000
  0.145833  0.000000  0.145833      0.004000
  0.166667  0.000000  0.166667      0.004000
  0.187500  0.000000  0.187500      0.004000
  0.208333  0.000000  0.208333      0.004000
  0.229167  0.000000  0.229167      0.004000
  0.250000  0.000000  0.250000      0.004000
  0.270833  0.000000  0.270833      0.004000
  0.291667  0.000000  0.291667      0.004000
  0.312500  0.000000  0.312500      0.004000
  0.333333  0.000000  0.333333      0.004000
  0.354167  0.000000  0.354167      0.004000
  0.375000  0.000000  0.375000      0.004000
  0.395833  0.000000  0.395833      0.004000
  0.416667  0.000000  0.416667      0.004000
  0.437500  0.000000  0.437500      0.004000
  0.458333  0.000000  0.458333      0.004000
  0.479167  0.000000  0.479167      0.004000
  0.500000  0.000000  0.500000      0.004000
  0.500000  0.000000  0.500000      0.004000
  0.500000  0.010417  0.510417      0.004000
  0.500000  0.020833  0.520833      0.004000
  0.500000  0.031250  0.531250      0.004000
  0.500000  0.041667  0.541667      0.004000
  0.500000  0.052083  0.552083      0.004000
  0.500000  0.062500  0.562500      0.004000
  0.500000  0.072917  0.572917      0.004000
  0.500000  0.083333  0.583333      0.004000
  0.500000  0.093750  0.593750      0.004000
  0.500000  0.104167  0.604167      0.004000
  0.500000  0.114583  0.614583      0.004000
  0.500000  0.125000  0.625000      0.004000
  0.500000  0.135417  0.635417      0.004000
  0.500000  0.145833  0.645833      0.004000
  0.500000  0.156250  0.656250      0.004000
  0.500000  0.166667  0.666667      0.004000
  0.500000  0.177083  0.677083      0.004000
  0.500000  0.187500  0.687500      0.004000
  0.500000  0.197917  0.697917      0.004000
  0.500000  0.208333  0.708333      0.004000
  0.500000  0.218750  0.718750      0.004000
  0.500000  0.229167  0.729167      0.004000
  0.500000  0.239583  0.739583      0.004000
  0.500000  0.250000  0.750000      0.004000
  0.500000  0.250000  0.750000      0.004000
  0.494792  0.255208  0.750000      0.004000
  0.489583  0.260417  0.750000      0.004000
  0.484375  0.265625  0.750000      0.004000
  0.479167  0.270833  0.750000      0.004000
  0.473958  0.276042  0.750000      0.004000
  0.468750  0.281250  0.750000      0.004000
  0.463542  0.286458  0.750000      0.004000
  0.458333  0.291667  0.750000      0.004000
  0.453125  0.296875  0.750000      0.004000
[...]
  0.572917  0.145833  0.572917      0.004000
  0.567708  0.135417  0.567708      0.004000
  0.562500  0.125000  0.562500      0.004000
  0.557292  0.114583  0.557292      0.004000
  0.552083  0.104167  0.552083      0.004000
  0.546875  0.093750  0.546875      0.004000
  0.541667  0.083333  0.541667      0.004000
  0.536458  0.072917  0.536458      0.004000
  0.531250  0.062500  0.531250      0.004000
  0.526042  0.052083  0.526042      0.004000
  0.520833  0.041667  0.520833      0.004000
  0.515625  0.031250  0.515625      0.004000
  0.510417  0.020833  0.510417      0.004000
  0.505208  0.010417  0.505208      0.004000
  0.500000  0.000000  0.500000      0.004000

 Following cartesian coordinates:
            Coordinates               Weight
  0.000000  0.000000  0.000000      0.004000
  0.000000  0.007619  0.000000      0.004000
  0.000000  0.015239  0.000000      0.004000
  0.000000  0.022858  0.000000      0.004000
  0.000000  0.030477  0.000000      0.004000
  0.000000  0.038096  0.000000      0.004000
  0.000000  0.045716  0.000000      0.004000
  0.000000  0.053335  0.000000      0.004000
  0.000000  0.060954  0.000000      0.004000
  0.000000  0.068574  0.000000      0.004000
  0.000000  0.076193  0.000000      0.004000
  0.000000  0.083812  0.000000      0.004000
  0.000000  0.091431  0.000000      0.004000
  0.000000  0.099051  0.000000      0.004000
  0.000000  0.106670  0.000000      0.004000
  0.000000  0.114289  0.000000      0.004000
  0.000000  0.121908  0.000000      0.004000
  0.000000  0.129528  0.000000      0.004000
  0.000000  0.137147  0.000000      0.004000
  0.000000  0.144766  0.000000      0.004000
  0.000000  0.152386  0.000000      0.004000
  0.000000  0.160005  0.000000      0.004000
  0.000000  0.167624  0.000000      0.004000
  0.000000  0.175243  0.000000      0.004000
  0.000000  0.182863  0.000000      0.004000
  0.000000  0.182863  0.000000      0.004000
  0.003810  0.182863  0.000000      0.004000
  0.007619  0.182863  0.000000      0.004000
  0.011429  0.182863  0.000000      0.004000
  0.015239  0.182863  0.000000      0.004000
  0.019048  0.182863  0.000000      0.004000
  0.022858  0.182863  0.000000      0.004000
  0.026667  0.182863  0.000000      0.004000
  0.030477  0.182863 -0.000000      0.004000
  0.034287  0.182863  0.000000      0.004000
  0.038096  0.182863  0.000000      0.004000
  0.041906  0.182863 -0.000000      0.004000
  0.045716  0.182863  0.000000      0.004000
  0.049525  0.182863  0.000000      0.004000
  0.053335  0.182863  0.000000      0.004000
  0.057145  0.182863  0.000000      0.004000
  0.060954  0.182863  0.000000      0.004000
  0.064764  0.182863  0.000000      0.004000
  0.068574  0.182863  0.000000      0.004000
  0.072383  0.182863  0.000000      0.004000
  0.076193  0.182863  0.000000      0.004000
  0.080002  0.182863  0.000000      0.004000
  0.083812  0.182863  0.000000      0.004000
  0.087622  0.182863  0.000000      0.004000
  0.091431  0.182863  0.000000      0.004000
  0.091431  0.182863  0.000000      0.004000
  0.093336  0.180958  0.000000      0.004000
  0.095241  0.179053  0.000000      0.004000
  0.097146  0.177148  0.000000      0.004000
  0.099051  0.175243  0.000000      0.004000
  0.100955  0.173339  0.000000      0.004000
  0.102860  0.171434  0.000000      0.004000
  0.104765  0.169529  0.000000      0.004000
  0.106670  0.167624  0.000000      0.004000
  0.108575  0.165719  0.000000      0.004000
[...]
  0.026667  0.182863  0.026667      0.004000
  0.024763  0.182863  0.024763      0.004000
  0.022858  0.182863  0.022858      0.004000
  0.020953  0.182863  0.020953      0.004000
  0.019048  0.182863  0.019048      0.004000
  0.017143  0.182863  0.017143      0.004000
  0.015239  0.182863  0.015239      0.004000
  0.013334  0.182863  0.013334      0.004000
  0.011429  0.182863  0.011429      0.004000
  0.009524  0.182863  0.009524      0.004000
  0.007619  0.182863  0.007619      0.004000
[...]
   0.06476387  0.18286269  0.00000000       0.004
   0.06857351  0.18286269  0.00000000       0.004
   0.07238315  0.18286269  0.00000000       0.004
   0.07619279  0.18286269  0.00000000       0.004
   0.08000243  0.18286269  0.00000000       0.004
   0.08381207  0.18286269  0.00000000       0.004
   0.08762171  0.18286269  0.00000000       0.004
   0.09143135  0.18286269  0.00000000       0.004
   0.09143135  0.18286269  0.00000000       0.004
   0.09333617  0.18095787  0.00000000       0.004
   0.09524099  0.17905305  0.00000000       0.004
   0.09714581  0.17714823  0.00000000       0.004
   0.09905063  0.17524342  0.00000000       0.004
   0.10095545  0.17333860  0.00000000       0.004
   0.10286027  0.17143378  0.00000000       0.004
   0.10476509  0.16952896  0.00000000       0.004
   0.10666990  0.16762414  0.00000000       0.004
   0.10857472  0.16571932  0.00000000       0.004
[...]
   0.02666748  0.18286269  0.02666748       0.004
   0.02476266  0.18286269  0.02476266       0.004
   0.02285784  0.18286269  0.02285784       0.004
   0.02095302  0.18286269  0.02095302       0.004
   0.01904820  0.18286269  0.01904820       0.004
   0.01714338  0.18286269  0.01714338       0.004
   0.01523856  0.18286269  0.01523856       0.004
   0.01333374  0.18286269  0.01333374       0.004
   0.01142892  0.18286269  0.01142892       0.004
   0.00952410  0.18286269  0.00952410       0.004
   0.00761928  0.18286269  0.00761928       0.004
   0.00571446  0.18286269  0.00571446       0.004
   0.00380964  0.18286269  0.00380964       0.004
   0.00190482  0.18286269  0.00190482       0.004
   0.00000000  0.18286269  0.00000000       0.004

 k-points in reciprocal lattice and weights: FCC (face-centered cubic) G-X-W-K-G-L-U-
   0.00000000  0.00000000  0.00000000       0.004
   0.02083333  0.00000000  0.02083333       0.004
   0.04166667  0.00000000  0.04166667       0.004
   0.06250000  0.00000000  0.06250000       0.004
   0.08333333  0.00000000  0.08333333       0.004
   0.10416667  0.00000000  0.10416667       0.004
   0.12500000  0.00000000  0.12500000       0.004
   0.14583333  0.00000000  0.14583333       0.004
   0.16666667  0.00000000  0.16666667       0.004
   0.18750000  0.00000000  0.18750000       0.004
   0.20833333  0.00000000  0.20833333       0.004
   0.22916667  0.00000000  0.22916667       0.004
   0.25000000  0.00000000  0.25000000       0.004
   0.27083333  0.00000000  0.27083333       0.004
   0.29166667  0.00000000  0.29166667       0.004
   0.31250000  0.00000000  0.31250000       0.004
   0.33333333  0.00000000  0.33333333       0.004
   0.35416667  0.00000000  0.35416667       0.004
   0.37500000  0.00000000  0.37500000       0.004
   0.39583333  0.00000000  0.39583333       0.004
   0.41666667  0.00000000  0.41666667       0.004
   0.43750000  0.00000000  0.43750000       0.004
   0.45833333  0.00000000  0.45833333       0.004
   0.47916667  0.00000000  0.47916667       0.004
   0.50000000  0.00000000  0.50000000       0.004
   0.50000000  0.00000000  0.50000000       0.004
   0.50000000  0.01041667  0.51041667       0.004
   0.50000000  0.02083333  0.52083333       0.004
   0.50000000  0.03125000  0.53125000       0.004
   0.50000000  0.04166667  0.54166667       0.004
   0.50000000  0.05208333  0.55208333       0.004
   0.50000000  0.06250000  0.56250000       0.004
   0.50000000  0.07291667  0.57291667       0.004
   0.50000000  0.08333333  0.58333333       0.004
   0.50000000  0.09375000  0.59375000       0.004
   0.50000000  0.10416667  0.60416667       0.004
   0.50000000  0.11458333  0.61458333       0.004
   0.50000000  0.12500000  0.62500000       0.004
   0.50000000  0.13541667  0.63541667       0.004
   0.50000000  0.14583333  0.64583333       0.004
   0.50000000  0.15625000  0.65625000       0.004
   0.50000000  0.16666667  0.66666667       0.004
   0.50000000  0.17708333  0.67708333       0.004
   0.50000000  0.18750000  0.68750000       0.004
   0.50000000  0.19791667  0.69791667       0.004
   0.50000000  0.20833333  0.70833333       0.004
   0.50000000  0.21875000  0.71875000       0.004
   0.50000000  0.22916667  0.72916667       0.004
   0.50000000  0.23958333  0.73958333       0.004
   0.50000000  0.25000000  0.75000000       0.004
   0.50000000  0.25000000  0.75000000       0.004
   0.49479167  0.25520833  0.75000000       0.004
   0.48958333  0.26041667  0.75000000       0.004
   0.48437500  0.26562500  0.75000000       0.004
   0.47916667  0.27083333  0.75000000       0.004
   0.47395833  0.27604167  0.75000000       0.004
   0.46875000  0.28125000  0.75000000       0.004
   0.46354167  0.28645833  0.75000000       0.004
   0.45833333  0.29166667  0.75000000       0.004
   0.45312500  0.29687500  0.75000000       0.004
[...]
   0.57291667  0.14583333  0.57291667       0.004
   0.56770833  0.13541667  0.56770833       0.004
   0.56250000  0.12500000  0.56250000       0.004
   0.55729167  0.11458333  0.55729167       0.004
   0.55208333  0.10416667  0.55208333       0.004
   0.54687500  0.09375000  0.54687500       0.004
   0.54166667  0.08333333  0.54166667       0.004
   0.53645833  0.07291667  0.53645833       0.004
   0.53125000  0.06250000  0.53125000       0.004
   0.52604167  0.05208333  0.52604167       0.004
   0.52083333  0.04166667  0.52083333       0.004
   0.51562500  0.03125000  0.51562500       0.004
   0.51041667  0.02083333  0.51041667       0.004
   0.50520833  0.01041667  0.50520833       0.004
   0.50000000  0.00000000  0.50000000       0.004

 position of ions in fractional coordinates (direct lattice)
   0.00000000  0.00000000  0.00000000
   0.25000000  0.25000000  0.25000000

 position of ions in cartesian coordinates  (Angst):
   0.00000000  0.00000000  0.00000000
   1.36714600  1.36714600  1.36714600

 k-point   1 :   0.0000 0.0000 0.0000  plane waves:    1067
 k-point   2 :   0.0208 0.0000 0.0208  plane waves:    1079
 k-point   3 :   0.0417 0.0000 0.0417  plane waves:    1087
 k-point   4 :   0.0625 0.0000 0.0625  plane waves:    1087
 k-point   5 :   0.0833 0.0000 0.0833  plane waves:    1099
 k-point   6 :   0.1042 0.0000 0.1042  plane waves:    1106
 k-point   7 :   0.1250 0.0000 0.1250  plane waves:    1102
 k-point   8 :   0.1458 0.0000 0.1458  plane waves:    1106
 k-point   9 :   0.1667 0.0000 0.1667  plane waves:    1094
 k-point  10 :   0.1875 0.0000 0.1875  plane waves:    1094
 k-point  11 :   0.2083 0.0000 0.2083  plane waves:    1106
 k-point  12 :   0.2292 0.0000 0.2292  plane waves:    1094
 k-point  13 :   0.2500 0.0000 0.2500  plane waves:    1094
 k-point  14 :   0.2708 0.0000 0.2708  plane waves:    1094
 k-point  15 :   0.2917 0.0000 0.2917  plane waves:    1094
 k-point  16 :   0.3125 0.0000 0.3125  plane waves:    1094
 k-point  17 :   0.3333 0.0000 0.3333  plane waves:    1082
 k-point  18 :   0.3542 0.0000 0.3542  plane waves:    1094
 k-point  19 :   0.3750 0.0000 0.3750  plane waves:    1094
 k-point  20 :   0.3958 0.0000 0.3958  plane waves:    1094
 k-point  21 :   0.4167 0.0000 0.4167  plane waves:    1102
 k-point  22 :   0.4375 0.0000 0.4375  plane waves:    1102
 k-point  23 :   0.4583 0.0000 0.4583  plane waves:    1102
 k-point  24 :   0.4792 0.0000 0.4792  plane waves:    1106
 k-point  25 :   0.5000 0.0000 0.5000  plane waves:    1106
 k-point  26 :   0.5000 0.0000 0.5000  plane waves:    1106
 k-point  27 :   0.5000 0.0104 0.5104  plane waves:    1106
 k-point  28 :   0.5000 0.0208 0.5208  plane waves:    1106
 k-point  29 :   0.5000 0.0312 0.5312  plane waves:    1106
 k-point  30 :   0.5000 0.0417 0.5417  plane waves:    1110
 k-point  31 :   0.5000 0.0521 0.5521  plane waves:    1110
 k-point  32 :   0.5000 0.0625 0.5625  plane waves:    1108
 k-point  33 :   0.5000 0.0729 0.5729  plane waves:    1108
 k-point  34 :   0.5000 0.0833 0.5833  plane waves:    1110
 k-point  35 :   0.5000 0.0938 0.5938  plane waves:    1110
 k-point  36 :   0.5000 0.1042 0.6042  plane waves:    1106
 k-point  37 :   0.5000 0.1146 0.6146  plane waves:    1106
 k-point  38 :   0.5000 0.1250 0.6250  plane waves:    1106
 k-point  39 :   0.5000 0.1354 0.6354  plane waves:    1108
 k-point  40 :   0.5000 0.1458 0.6458  plane waves:    1102
 k-point  41 :   0.5000 0.1562 0.6562  plane waves:    1098
 k-point  42 :   0.5000 0.1667 0.6667  plane waves:    1098
 k-point  43 :   0.5000 0.1771 0.6771  plane waves:    1098
 k-point  44 :   0.5000 0.1875 0.6875  plane waves:    1100
 k-point  45 :   0.5000 0.1979 0.6979  plane waves:    1104
 k-point  46 :   0.5000 0.2083 0.7083  plane waves:    1104
 k-point  47 :   0.5000 0.2188 0.7188  plane waves:    1104
 k-point  48 :   0.5000 0.2292 0.7292  plane waves:    1108
 k-point  49 :   0.5000 0.2396 0.7396  plane waves:    1112
 k-point  50 :   0.5000 0.2500 0.7500  plane waves:    1124
 k-point  51 :   0.5000 0.2500 0.7500  plane waves:    1124
 k-point  52 :   0.4948 0.2552 0.7500  plane waves:    1112
 k-point  53 :   0.4896 0.2604 0.7500  plane waves:    1112
 k-point  54 :   0.4844 0.2656 0.7500  plane waves:    1112
 k-point  55 :   0.4792 0.2708 0.7500  plane waves:    1112
 k-point  56 :   0.4740 0.2760 0.7500  plane waves:    1108
 k-point  57 :   0.4688 0.2812 0.7500  plane waves:    1108
 k-point  58 :   0.4635 0.2865 0.7500  plane waves:    1109
 k-point  59 :   0.4583 0.2917 0.7500  plane waves:    1104
 k-point  60 :   0.4531 0.2969 0.7500  plane waves:    1104
[...]
 k-point 236 :   0.5729 0.1458 0.5729  plane waves:    1110
 k-point 237 :   0.5677 0.1354 0.5677  plane waves:    1110
 k-point 238 :   0.5625 0.1250 0.5625  plane waves:    1110
 k-point 239 :   0.5573 0.1146 0.5573  plane waves:    1118
 k-point 240 :   0.5521 0.1042 0.5521  plane waves:    1114
 k-point 241 :   0.5469 0.0938 0.5469  plane waves:    1108
 k-point 242 :   0.5417 0.0833 0.5417  plane waves:    1112
 k-point 243 :   0.5365 0.0729 0.5365  plane waves:    1112
 k-point 244 :   0.5312 0.0625 0.5312  plane waves:    1104
 k-point 245 :   0.5260 0.0521 0.5260  plane waves:    1104
 k-point 246 :   0.5208 0.0417 0.5208  plane waves:    1106
 k-point 247 :   0.5156 0.0312 0.5156  plane waves:    1106
 k-point 248 :   0.5104 0.0208 0.5104  plane waves:    1106
 k-point 249 :   0.5052 0.0104 0.5052  plane waves:    1106
 k-point 250 :   0.5000 0.0000 0.5000  plane waves:    1106

 maximum and minimum number of plane-waves per node :      1124     1067

 maximum number of plane-waves:      1124
 maximum index in each direction:
   IXMAX=    7   IYMAX=    7   IZMAX=    7
   IXMIN=   -7   IYMIN=   -7   IZMIN=   -7

 serial   3D FFT for wavefunctions
 parallel 3D FFT for charge:
    minimum data exchange during FFTs selected (reduces bandwidth)

 initial charge density was supplied:
 number of electron       8.0000001 magnetization
 keeping initial charge density in first step

 Maximum index for augmentation-charges         5379 (set IRDMAX)

 First call to EWALD:  gamma=   0.515
 Maximum number of real-space cells 3x 3x 3
 Maximum number of reciprocal cells 3x 3x 3

--------------------------------------- Ionic step        1  -------------------------------------------

--------------------------------------- Iteration      1(   1)  ---------------------------------------

 eigenvalue-minimisations  :  4000
 total energy-change (2. order) : 0.5403782E+01  (-0.3254939E+03)
 number of electron       8.0000001 magnetization
 augmentation part        8.0000001 magnetization

 Free energy of the ion-electron system (eV)
  alpha Z        PSCENC =         3.29344055
  Ewald energy   TEWEN  =      -226.95087875
  -Hartree energ DENC   =       -15.17283579
  -exchange      EXHF   =         0.00000000
  -V(xc)+E(xc)   XCENC  =       -18.05999103
  PAW double counting   =       829.90302202     -794.92195543
  entropy T*S    EENTRO =        -0.00025918
  eigenvalues    EBANDS =        21.18053720
  atomic energy  EATOM  =       206.13270273
  Solvation  Ediel_sol  =         0.00000000
  free energy    TOTEN  =         5.40378232 eV

  energy without entropy =        5.40404150  energy(sigma->0) =        5.40391191

[...]

 eigenvalue-minimisations  :  6000
 total energy-change (2. order) :-0.1619502E+02  (-0.1557888E+02)
 number of electron       8.0000001 magnetization
 augmentation part        8.0000001 magnetization

[...]

--------------------------------------- Iteration      1(   7)  ---------------------------------------

 eigenvalue-minimisations  :  5544
 total energy-change (2. order) :-0.2967226E-10  (-0.2958084E-10)
 number of electron       8.0000001 magnetization
 augmentation part        8.0000001 magnetization

 Free energy of the ion-electron system (eV)
  alpha Z        PSCENC =         3.29344055
  Ewald energy   TEWEN  =      -226.95087875
  -Hartree energ DENC   =       -15.17283579
  -exchange      EXHF   =         0.00000000
  -V(xc)+E(xc)   XCENC  =       -18.05999103
  PAW double counting   =       829.90302202     -794.92195543
  entropy T*S    EENTRO =        -0.00000000
  eigenvalues    EBANDS =         4.73712023
  atomic energy  EATOM  =       206.13270273
  Solvation  Ediel_sol  =         0.00000000
  free energy    TOTEN  =       -11.03937547 eV

  energy without entropy =      -11.03937547  energy(sigma->0) =      -11.03937547

 average (electrostatic) potential at core
  the test charge radii are     0.9892
  (the norm of the test charge is              1.0000)
       1 -83.4818       2 -83.4818

 E-fermi :   5.8049     XC(G=0):  -9.3274     alpha+bet :-11.7326

 Fermi energy:         5.8049363459

 k-point     1 :       0.0000    0.0000    0.0000
  band No.  band energies     occupation
      1      -6.1982      2.00000
      2       5.6170      2.00000
      3       5.6170      2.00000
      4       5.6170      2.00000
      5       8.1739      0.00000
      6       8.1739      0.00000
      7       8.1739      0.00000
      8       8.7518      0.00000

[...]

 k-point   250 :       0.5000    0.0000    0.5000
  band No.  band energies     occupation
      1      -2.1295      2.00000
      2      -2.1295      2.00000
      3       2.8227      2.00000
      4       2.8227      2.00000
      5       6.3685      0.00000
      6       6.3685      0.00000
      7      15.5542      0.00000
      8      15.5543      0.00000

 soft charge-density along one line, spin component           1
         0         1         2         3         4         5         6         7         8         9
 total charge-density along one line

------------------------ aborting loop because EDIFF is reached ----------------------------------------

 total charge

# of ion       s       p       d       tot
    1        0.738   0.942   0.000   1.680
    2        0.738   0.942   0.000   1.680
tot          1.476   1.883   0.000   3.360

 VOLUME and BASIS-vectors are now :
  energy-cutoff  :      520.00
  volume of cell :       40.89
      direct lattice vectors                 reciprocal lattice vectors
     0.000000000  2.734291991  2.734291991    -0.182862694  0.182862694  0.182862694
     2.734291991  0.000000000  2.734291991     0.182862694 -0.182862694  0.182862694
     2.734291991  2.734291991  0.000000000     0.182862694  0.182862694 -0.182862694

  length of vectors
     3.866872817  3.866872817  3.866872817     0.316727477  0.316727477  0.316727477

 FORCES acting on ions
    electron-ion (+dipol)            ewald-force                    non-local-force                 convergence-correction
   0.606E-08 0.606E-08 0.846E-08   -.325E-15 -.901E-15 0.113E-15   -.173E-16 -.694E-16 -.170E-15   0.688E-11 0.687E-11 0.687E-11
   -.606E-08 -.606E-08 -.846E-08   0.471E-15 0.992E-15 -.560E-15   -.104E-16 0.486E-16 0.177E-15   -.687E-11 -.687E-11 -.687E-11
   -.421E-13 -.661E-13 -.128E-13   0.146E-15 0.902E-16 -.447E-15   -.278E-16 -.208E-16 0.694E-17   0.218E-14 0.976E-15 0.693E-16

 POSITION                                       TOTAL-FORCE (eV/Angst)
      0.00000      0.00000      0.00000        -0.000000      0.000000      0.000000
      1.36715      1.36715      1.36715         0.000000     -0.000000     -0.000000
    total drift:                               -0.000000     -0.000000     -0.000000

  FREE ENERGIE OF THE ION-ELECTRON SYSTEM (eV)
  free  energy   TOTEN  =       -11.03937547 eV

  energy  without entropy=      -11.03937547  energy(sigma->0) =      -11.03937547

 stress matrix after NEB project (eV)
      0.00000      0.00000      0.00000
      0.00000      0.00000      0.00000
      0.00000      0.00000      0.00000
  FORCES: max atom, RMS     0.000000    0.000000
  FORCE total and by dimension    0.000000    0.000000
  Stress total and by dimension    0.000000    0.000000

 total charge

# of ion       s       p       d       tot
    1        0.738   0.942   0.000   1.680
    2        0.738   0.942   0.000   1.680
tot          1.476   1.883   0.000   3.360