 vasp.6.4.2 20Jul23 (build Oct 16 2024 22:45:58) complex

 executed on             LinuxIFC date 2025.01.29  09:10:37

 INCAR:
   SYSTEM = Si FCC
   PREC = Accurate
   EDIFF = 1E-10
   EDIFFG = -1E-5
   ISMEAR = 0
   SIGMA = 0.03
   GGA = PE
   ENCUT = 520
   NSW = 0
   IBRION = -1
   ISIF = 0
   LWAVE = .FALSE.
   LCHARG = .FALSE.
   LORBIT = 11

 POTCAR:    PAW_PBE Si 05Jan2001
|           W    W    AA    RRRRR   N    N  II  N    N   GGGG   !!!           |
|           W    W   A  A   R    R  NN   N  II  NN   N  G    G  !!!           |
|           W    W  A    A  R    R  N N  N  II  N N  N  G       !!!           |
|           W WW W  AAAAAA  RRRRR   N  N N  II  N  N N  G  GGG   !            |
|           WW  WW  A    A  R   R   N   NN  II  N   NN  G    G                |
|           W    W  A    A  R    R  N    N  II  N    N   GGGG   !!!           |
|     For optimal performance we recommend to set                             |
|       NCORE = 2 up to number-of-cores-per-socket                            |
|     This setting can greatly improve the performance of VASP for DFT.       |
|     The default, NCORE=1 might be grossly inefficient on modern             |
|     multi-core architectures or massively parallel machines. Do your        |
|     Unfortunately you need to use the default for GW and RPA                |
|     calculations (for HF NCORE is supported but not extensively tested      |
|     yet).                                                                   |

   TITEL  = PAW_PBE Si 05Jan2001
   POMASS =   28.085; ZVAL   =    4.000    mass and valenz
   ENMAX  =  245.345; ENMIN  =  184.009 eV

  PAW_PBE Si 05Jan2001                  :

 POSCAR: Si [FCC,FCC,cF8]
  positions in direct lattice
  velocities in cartesian coordinates
 exchange correlation table for  LEXCH =        8
   RHO(1)=    0.500       N(1)  =     2000
   RHO(2)=  100.500       N(2)  =     4000

 VTST: version 4.1, (05/19/21)

 CHAIN: initializing optimizer

 OPT: Using VASP Dynamics algorithm
 CHAIN: Read ICHAIN            0

 POSCAR: Si [FCC,FCC,cF8]
  positions in direct lattice
  velocities in cartesian coordinates

 ion  position               nearest neighbor table
   1  0.000  0.000  0.000-   2 2.37   2 2.37   2 2.37   2 2.37
   2  0.250  0.250  0.250-   1 2.37   1 2.37   1 2.37   1 2.37

  LATTYP: Found a face centered cubic cell.
 ALAT       =     5.4685839824

  Lattice vectors:

 A1 = (   0.0000000000,   2.7342919912,   2.7342919912)
 A2 = (   2.7342919912,   0.0000000000,   2.7342919912)
 A3 = (   2.7342919912,   2.7342919912,   0.0000000000)

Analysis of symmetry for initial positions (statically):
 Subroutine PRICEL returns:
 Original cell was already a primitive cell.

 Routine SETGRP: Setting up the symmetry group for a
 face centered cubic supercell.

 Subroutine GETGRP returns: Found 48 space group operations
 (whereof 24 operations were pure point group operations)
 out of a pool of 48 trial point group operations.

The static configuration has the point symmetry T_d .
 The point group associated with its full space group is O_h .

Analysis of symmetry for dynamics (positions and initial velocities):
 Subroutine PRICEL returns:
 Original cell was already a primitive cell.

 Routine SETGRP: Setting up the symmetry group for a
 face centered cubic supercell.

 Subroutine GETGRP returns: Found 48 space group operations
 (whereof 24 operations were pure point group operations)
 out of a pool of 48 trial point group operations.

The dynamic configuration has the point symmetry T_d .
 The point group associated with its full space group is O_h .

 Subroutine INISYM returns: Found 48 space group operations
 (whereof 24 operations are pure point group operations),
 and found     1 'primitive' translations

                                     Primitive cell

  volume of cell :      40.8851

  direct lattice vectors                    reciprocal lattice vectors
     0.000000000  2.734291991  2.734291991    -0.182862694  0.182862694  0.182862694
     2.734291991  0.000000000  2.734291991     0.182862694 -0.182862694  0.182862694
     2.734291991  2.734291991  0.000000000     0.182862694  0.182862694 -0.182862694

  length of vectors
     3.866872817  3.866872817  3.866872817     0.316727477  0.316727477  0.316727477

  position of ions in fractional coordinates (direct lattice)
     0.000000000  0.000000000  0.000000000
     0.250000000  0.250000000  0.250000000

  ion indices of the primitive-cell ions
   primitive index   ion index
                 1           1
                 2           2

 KPOINTS: KPOINTS

Automatic generation of k-mesh.
 Grid dimensions read from file:
 generate k-points for:   30   30   30

 Generating k-lattice:

  Cartesian coordinates                     Fractional coordinates (reciprocal lattice)
    -0.006095423  0.006095423  0.006095423     0.033333333  0.000000000  0.000000000
     0.006095423 -0.006095423  0.006095423     0.000000000  0.033333333  0.000000000
     0.006095423  0.006095423 -0.006095423     0.000000000  0.000000000  0.033333333

  Length of vectors
     0.010557583  0.010557583  0.010557583

  Shift w.r.t. Gamma in fractional coordinates (k-lattice)
     0.000000000  0.000000000  0.000000000

 Subroutine IBZKPT returns following result:

 Found    752 irreducible k-points:

 Following reciprocal coordinates:
            Coordinates               Weight
  0.000000  0.000000  0.000000      1.000000
  0.033333  0.000000  0.000000      8.000000
  0.066667  0.000000  0.000000      8.000000
  0.100000  0.000000  0.000000      8.000000
  0.133333  0.000000  0.000000      8.000000
  0.166667  0.000000  0.000000      8.000000
  0.200000  0.000000  0.000000      8.000000
  0.233333  0.000000  0.000000      8.000000
  0.266667  0.000000  0.000000      8.000000
  0.300000  0.000000  0.000000      8.000000
  0.333333  0.000000  0.000000      8.000000
  0.366667  0.000000  0.000000      8.000000
  0.400000  0.000000  0.000000      8.000000
  0.433333  0.000000  0.000000      8.000000
  0.466667  0.000000  0.000000      8.000000
  0.500000  0.000000  0.000000      4.000000
  0.033333  0.033333  0.000000      6.000000
  0.066667  0.033333  0.000000     24.000000
  0.100000  0.033333  0.000000     24.000000
  0.133333  0.033333  0.000000     24.000000
  0.166667  0.033333  0.000000     24.000000
  0.200000  0.033333  0.000000     24.000000
  0.233333  0.033333  0.000000     24.000000
  0.266667  0.033333  0.000000     24.000000
  0.300000  0.033333  0.000000     24.000000
  0.333333  0.033333  0.000000     24.000000
  0.366667  0.033333  0.000000     24.000000
  0.400000  0.033333  0.000000     24.000000
  0.433333  0.033333  0.000000     24.000000
  0.466667  0.033333  0.000000     24.000000
  0.500000  0.033333  0.000000     24.000000
 -0.466667  0.033333  0.000000     24.000000
 -0.433333  0.033333  0.000000     24.000000
 -0.400000  0.033333  0.000000     24.000000
 -0.366667  0.033333  0.000000     24.000000
 -0.333333  0.033333  0.000000     24.000000
 -0.300000  0.033333  0.000000     24.000000
 -0.266667  0.033333  0.000000     24.000000
 -0.233333  0.033333  0.000000     24.000000
 -0.200000  0.033333  0.000000     24.000000
 -0.166667  0.033333  0.000000     24.000000
 -0.133333  0.033333  0.000000     24.000000
 -0.100000  0.033333  0.000000     24.000000
 -0.066667  0.033333  0.000000     24.000000
 -0.033333  0.033333  0.000000     12.000000
  0.066667  0.066667  0.000000      6.000000
  0.100000  0.066667  0.000000     24.000000
  0.133333  0.066667  0.000000     24.000000
  0.166667  0.066667  0.000000     24.000000
  0.200000  0.066667  0.000000     24.000000
  0.233333  0.066667  0.000000     24.000000
  0.266667  0.066667  0.000000     24.000000
  0.300000  0.066667  0.000000     24.000000
  0.333333  0.066667  0.000000     24.000000
  0.366667  0.066667  0.000000     24.000000
  0.400000  0.066667  0.000000     24.000000
  0.433333  0.066667  0.000000     24.000000
  0.466667  0.066667  0.000000     24.000000
  0.500000  0.066667  0.000000     24.000000
 -0.466667  0.066667  0.000000     24.000000
[...]
 -0.366667  0.400000  0.200000     48.000000
 -0.333333  0.400000  0.200000     48.000000
 -0.300000  0.400000  0.200000     24.000000
 -0.366667  0.433333  0.200000     24.000000
 -0.333333  0.433333  0.200000     48.000000
 -0.300000  0.433333  0.200000     48.000000
 -0.266667  0.433333  0.200000     48.000000
 -0.233333  0.433333  0.200000     24.000000
 -0.333333  0.466667  0.200000     24.000000
 -0.300000  0.466667  0.200000     48.000000
 -0.266667  0.466667  0.200000     24.000000
 -0.300000  0.500000  0.200000     12.000000
 -0.300000  0.466667  0.233333     24.000000
 -0.266667  0.466667  0.233333     24.000000
 -0.266667  0.500000  0.233333     12.000000

 Following cartesian coordinates:
            Coordinates               Weight
  0.000000  0.000000  0.000000      1.000000
 -0.006095  0.006095  0.006095      8.000000
 -0.012191  0.012191  0.012191      8.000000
 -0.018286  0.018286  0.018286      8.000000
 -0.024382  0.024382  0.024382      8.000000
 -0.030477  0.030477  0.030477      8.000000
 -0.036573  0.036573  0.036573      8.000000
 -0.042668  0.042668  0.042668      8.000000
 -0.048763  0.048763  0.048763      8.000000
 -0.054859  0.054859  0.054859      8.000000
 -0.060954  0.060954  0.060954      8.000000
 -0.067050  0.067050  0.067050      8.000000
 -0.073145  0.073145  0.073145      8.000000
 -0.079241  0.079241  0.079241      8.000000
 -0.085336  0.085336  0.085336      8.000000
 -0.091431  0.091431  0.091431      4.000000
  0.000000  0.000000  0.012191      6.000000
 -0.006095  0.006095  0.018286     24.000000
 -0.012191  0.012191  0.024382     24.000000
 -0.018286  0.018286  0.030477     24.000000
 -0.024382  0.024382  0.036573     24.000000
 -0.030477  0.030477  0.042668     24.000000
 -0.036573  0.036573  0.048763     24.000000
 -0.042668  0.042668  0.054859     24.000000
 -0.048763  0.048763  0.060954     24.000000
 -0.054859  0.054859  0.067050     24.000000
 -0.060954  0.060954  0.073145     24.000000
 -0.067050  0.067050  0.079241     24.000000
 -0.073145  0.073145  0.085336     24.000000
 -0.079241  0.079241  0.091431     24.000000
 -0.085336  0.085336  0.097527     24.000000
  0.091431 -0.091431 -0.079241     24.000000
  0.085336 -0.085336 -0.073145     24.000000
  0.079241 -0.079241 -0.067050     24.000000
  0.073145 -0.073145 -0.060954     24.000000
  0.067050 -0.067050 -0.054859     24.000000
  0.060954 -0.060954 -0.048763     24.000000
  0.054859 -0.054859 -0.042668     24.000000
  0.048763 -0.048763 -0.036573     24.000000
  0.042668 -0.042668 -0.030477     24.000000
  0.036573 -0.036573 -0.024382     24.000000
  0.030477 -0.030477 -0.018286     24.000000
  0.024382 -0.024382 -0.012191     24.000000
  0.018286 -0.018286 -0.006095     24.000000
  0.012191 -0.012191  0.000000     12.000000
  0.000000  0.000000  0.024382      6.000000
 -0.006095  0.006095  0.030477     24.000000
 -0.012191  0.012191  0.036573     24.000000
 -0.018286  0.018286  0.042668     24.000000
 -0.024382  0.024382  0.048763     24.000000
 -0.030477  0.030477  0.054859     24.000000
 -0.036573  0.036573  0.060954     24.000000
[...]
   0.17067185 -0.09752677 -0.02438169       0.002
   0.16457642 -0.09143135 -0.01828627       0.001
   0.18286269 -0.10971762 -0.02438169       0.001
   0.17676727 -0.10362219 -0.01828627       0.002
   0.17067185 -0.09752677 -0.01219085       0.002
   0.16457642 -0.09143135 -0.00609542       0.002
   0.15848100 -0.08533592 -0.00000000       0.001
   0.18286269 -0.10971762 -0.01219085       0.001
   0.17676727 -0.10362219 -0.00609542       0.002
   0.17067185 -0.09752677  0.00000000       0.001
   0.18286269 -0.10971762  0.00000000       0.000
   0.18286269 -0.09752677 -0.01219085       0.001
   0.17676727 -0.09143135 -0.00609542       0.001
   0.18286269 -0.09752677  0.00000000       0.000

 k-points in reciprocal lattice and weights: KPOINTS
   0.00000000  0.00000000  0.00000000       0.000
   0.03333333  0.00000000  0.00000000       0.000
   0.06666667  0.00000000  0.00000000       0.000
   0.10000000  0.00000000  0.00000000       0.000
   0.13333333  0.00000000  0.00000000       0.000
   0.16666667  0.00000000  0.00000000       0.000
   0.20000000  0.00000000  0.00000000       0.000
   0.23333333  0.00000000  0.00000000       0.000
   0.26666667  0.00000000  0.00000000       0.000
   0.30000000  0.00000000  0.00000000       0.000
   0.33333333  0.00000000  0.00000000       0.000
   0.36666667  0.00000000  0.00000000       0.000
   0.40000000  0.00000000  0.00000000       0.000
   0.43333333  0.00000000  0.00000000       0.000
   0.46666667  0.00000000  0.00000000       0.000
   0.50000000  0.00000000  0.00000000       0.000
   0.03333333  0.03333333  0.00000000       0.000
   0.06666667  0.03333333  0.00000000       0.001
   0.10000000  0.03333333  0.00000000       0.001
   0.13333333  0.03333333  0.00000000       0.001
   0.16666667  0.03333333  0.00000000       0.001
   0.20000000  0.03333333  0.00000000       0.001
   0.23333333  0.03333333  0.00000000       0.001
   0.26666667  0.03333333  0.00000000       0.001
   0.30000000  0.03333333  0.00000000       0.001
   0.33333333  0.03333333  0.00000000       0.001
   0.36666667  0.03333333  0.00000000       0.001
   0.40000000  0.03333333  0.00000000       0.001
   0.43333333  0.03333333  0.00000000       0.001
   0.46666667  0.03333333  0.00000000       0.001
   0.50000000  0.03333333  0.00000000       0.001
  -0.46666667  0.03333333  0.00000000       0.001
  -0.43333333  0.03333333  0.00000000       0.001
  -0.40000000  0.03333333  0.00000000       0.001
  -0.36666667  0.03333333  0.00000000       0.001
  -0.33333333  0.03333333  0.00000000       0.001
  -0.30000000  0.03333333  0.00000000       0.001
  -0.26666667  0.03333333  0.00000000       0.001
  -0.23333333  0.03333333  0.00000000       0.001
  -0.20000000  0.03333333  0.00000000       0.001
  -0.16666667  0.03333333  0.00000000       0.001
  -0.13333333  0.03333333  0.00000000       0.001
  -0.10000000  0.03333333  0.00000000       0.001
  -0.06666667  0.03333333  0.00000000       0.001
  -0.03333333  0.03333333  0.00000000       0.000
   0.06666667  0.06666667  0.00000000       0.000
   0.10000000  0.06666667  0.00000000       0.001
   0.13333333  0.06666667  0.00000000       0.001
   0.16666667  0.06666667  0.00000000       0.001
   0.20000000  0.06666667  0.00000000       0.001
   0.23333333  0.06666667  0.00000000       0.001
   0.26666667  0.06666667  0.00000000       0.001
   0.30000000  0.06666667  0.00000000       0.001
   0.33333333  0.06666667  0.00000000       0.001
   0.36666667  0.06666667  0.00000000       0.001
   0.40000000  0.06666667  0.00000000       0.001
   0.43333333  0.06666667  0.00000000       0.001
   0.46666667  0.06666667  0.00000000       0.001
   0.50000000  0.06666667  0.00000000       0.001
  -0.46666667  0.06666667  0.00000000       0.001
[...]
  -0.36666667  0.40000000  0.20000000       0.002
  -0.33333333  0.40000000  0.20000000       0.002
  -0.30000000  0.40000000  0.20000000       0.001
  -0.36666667  0.43333333  0.20000000       0.001
  -0.33333333  0.43333333  0.20000000       0.002
  -0.30000000  0.43333333  0.20000000       0.002
  -0.26666667  0.43333333  0.20000000       0.002
  -0.23333333  0.43333333  0.20000000       0.001
  -0.33333333  0.46666667  0.20000000       0.001
  -0.30000000  0.46666667  0.20000000       0.002
  -0.26666667  0.46666667  0.20000000       0.001
  -0.30000000  0.50000000  0.20000000       0.000
  -0.30000000  0.46666667  0.23333333       0.001
  -0.26666667  0.46666667  0.23333333       0.001
  -0.26666667  0.50000000  0.23333333       0.000

 position of ions in fractional coordinates (direct lattice)
   0.00000000  0.00000000  0.00000000
   0.25000000  0.25000000  0.25000000

 position of ions in cartesian coordinates  (Angst):
   0.00000000  0.00000000  0.00000000
   1.36714600  1.36714600  1.36714600

 k-point   1 :   0.0000 0.0000 0.0000  plane waves:    1067
 k-point   2 :   0.0333 0.0000 0.0000  plane waves:    1085
 k-point   3 :   0.0667 0.0000 0.0000  plane waves:    1091
 k-point   4 :   0.1000 0.0000 0.0000  plane waves:    1097
 k-point   5 :   0.1333 0.0000 0.0000  plane waves:    1098
 k-point   6 :   0.1667 0.0000 0.0000  plane waves:    1092
 k-point   7 :   0.2000 0.0000 0.0000  plane waves:    1098
 k-point   8 :   0.2333 0.0000 0.0000  plane waves:    1095
 k-point   9 :   0.2667 0.0000 0.0000  plane waves:    1095
 k-point  10 :   0.3000 0.0000 0.0000  plane waves:    1089
 k-point  11 :   0.3333 0.0000 0.0000  plane waves:    1089
 k-point  12 :   0.3667 0.0000 0.0000  plane waves:    1101
 k-point  13 :   0.4000 0.0000 0.0000  plane waves:    1101
 k-point  14 :   0.4333 0.0000 0.0000  plane waves:    1107
 k-point  15 :   0.4667 0.0000 0.0000  plane waves:    1098
 k-point  16 :   0.5000 0.0000 0.0000  plane waves:    1104
 k-point  17 :   0.0333 0.0333 0.0000  plane waves:    1087
 k-point  18 :   0.0667 0.0333 0.0000  plane waves:    1091
 k-point  19 :   0.1000 0.0333 0.0000  plane waves:    1099
 k-point  20 :   0.1333 0.0333 0.0000  plane waves:    1104
 k-point  21 :   0.1667 0.0333 0.0000  plane waves:    1099
 k-point  22 :   0.2000 0.0333 0.0000  plane waves:    1100
 k-point  23 :   0.2333 0.0333 0.0000  plane waves:    1101
 k-point  24 :   0.2667 0.0333 0.0000  plane waves:    1095
 k-point  25 :   0.3000 0.0333 0.0000  plane waves:    1095
 k-point  26 :   0.3333 0.0333 0.0000  plane waves:    1096
 k-point  27 :   0.3667 0.0333 0.0000  plane waves:    1102
 k-point  28 :   0.4000 0.0333 0.0000  plane waves:    1104
 k-point  29 :   0.4333 0.0333 0.0000  plane waves:    1102
 k-point  30 :   0.4667 0.0333 0.0000  plane waves:    1101
 k-point  31 :   0.5000 0.0333 0.0000  plane waves:    1096
 k-point  32 :  -0.4667 0.0333 0.0000  plane waves:    1094
 k-point  33 :  -0.4333 0.0333 0.0000  plane waves:    1102
 k-point  34 :  -0.4000 0.0333 0.0000  plane waves:    1106
 k-point  35 :  -0.3667 0.0333 0.0000  plane waves:    1108
 k-point  36 :  -0.3333 0.0333 0.0000  plane waves:    1096
 k-point  37 :  -0.3000 0.0333 0.0000  plane waves:    1097
 k-point  38 :  -0.2667 0.0333 0.0000  plane waves:    1093
 k-point  39 :  -0.2333 0.0333 0.0000  plane waves:    1097
 k-point  40 :  -0.2000 0.0333 0.0000  plane waves:    1102
 k-point  41 :  -0.1667 0.0333 0.0000  plane waves:    1100
 k-point  42 :  -0.1333 0.0333 0.0000  plane waves:    1097
 k-point  43 :  -0.1000 0.0333 0.0000  plane waves:    1100
 k-point  44 :  -0.0667 0.0333 0.0000  plane waves:    1095
 k-point  45 :  -0.0333 0.0333 0.0000  plane waves:    1091
 k-point  46 :   0.0667 0.0667 0.0000  plane waves:    1087
 k-point  47 :   0.1000 0.0667 0.0000  plane waves:    1095
 k-point  48 :   0.1333 0.0667 0.0000  plane waves:    1099
 k-point  49 :   0.1667 0.0667 0.0000  plane waves:    1103
 k-point  50 :   0.2000 0.0667 0.0000  plane waves:    1101
 k-point  51 :   0.2333 0.0667 0.0000  plane waves:    1101
 k-point  52 :   0.2667 0.0667 0.0000  plane waves:    1095
 k-point  53 :   0.3000 0.0667 0.0000  plane waves:    1096
 k-point  54 :   0.3333 0.0667 0.0000  plane waves:    1096
 k-point  55 :   0.3667 0.0667 0.0000  plane waves:    1099
 k-point  56 :   0.4000 0.0667 0.0000  plane waves:    1109
 k-point  57 :   0.4333 0.0667 0.0000  plane waves:    1105
 k-point  58 :   0.4667 0.0667 0.0000  plane waves:    1109
 k-point  59 :   0.5000 0.0667 0.0000  plane waves:    1100
 k-point  60 :  -0.4667 0.0667 0.0000  plane waves:    1104
[...]
 k-point 738 :  -0.3667 0.4000 0.2000  plane waves:    1100
 k-point 739 :  -0.3333 0.4000 0.2000  plane waves:    1106
 k-point 740 :  -0.3000 0.4000 0.2000  plane waves:    1104
 k-point 741 :  -0.3667 0.4333 0.2000  plane waves:    1102
 k-point 742 :  -0.3333 0.4333 0.2000  plane waves:    1105
 k-point 743 :  -0.3000 0.4333 0.2000  plane waves:    1106
 k-point 744 :  -0.2667 0.4333 0.2000  plane waves:    1106
 k-point 745 :  -0.2333 0.4333 0.2000  plane waves:    1108
 k-point 746 :  -0.3333 0.4667 0.2000  plane waves:    1104
 k-point 747 :  -0.3000 0.4667 0.2000  plane waves:    1106
 k-point 748 :  -0.2667 0.4667 0.2000  plane waves:    1108
 k-point 749 :  -0.3000 0.5000 0.2000  plane waves:    1104
 k-point 750 :  -0.3000 0.4667 0.2333  plane waves:    1104
 k-point 751 :  -0.2667 0.4667 0.2333  plane waves:    1108
 k-point 752 :  -0.2667 0.5000 0.2333  plane waves:    1108

 maximum and minimum number of plane-waves per node :      1120     1067

 maximum number of plane-waves:      1120
 maximum index in each direction:
   IXMAX=    7   IYMAX=    7   IZMAX=    7
   IXMIN=   -7   IYMIN=   -7   IZMIN=   -7

 serial   3D FFT for wavefunctions
 parallel 3D FFT for charge:
    minimum data exchange during FFTs selected (reduces bandwidth)

 Broyden mixing: mesh for mixing (old mesh)
   NGX = 15   NGY = 15   NGZ = 15
  (NGX  = 60   NGY  = 60   NGZ  = 60)
  gives a total of   3375 points

 initial charge density was supplied:
 charge density of overlapping atoms calculated
 number of electron       8.0000000 magnetization
 keeping initial charge density in first step

 Maximum index for augmentation-charges         3098 (set IRDMAX)

 First call to EWALD:  gamma=   0.515
 Maximum number of real-space cells 3x 3x 3
 Maximum number of reciprocal cells 3x 3x 3

--------------------------------------- Ionic step        1  -------------------------------------------

--------------------------------------- Iteration      1(   1)  ---------------------------------------

 eigenvalue-minimisations  : 12040
 total energy-change (2. order) : 0.7304169E+01  (-0.3279973E+03)
 number of electron       8.0000000 magnetization
 augmentation part        8.0000000 magnetization

 Free energy of the ion-electron system (eV)
  alpha Z        PSCENC =         3.29344055
  Ewald energy   TEWEN  =      -226.95087875
  -Hartree energ DENC   =       -11.32218615
  -exchange      EXHF   =         0.00000000
  -V(xc)+E(xc)   XCENC  =       -18.68487302
  PAW double counting   =       176.24759923     -141.06103558
  entropy T*S    EENTRO =        -0.00027146
  eigenvalues    EBANDS =        19.64967144
  atomic energy  EATOM  =       206.13270273
  Solvation  Ediel_sol  =         0.00000000
  free energy    TOTEN  =         7.30416899 eV

  energy without entropy =        7.30444046  energy(sigma->0) =        7.30430473

[...]

 eigenvalue-minimisations  : 18216
 total energy-change (2. order) :-0.1806944E+02  (-0.1740830E+02)
 number of electron       8.0000000 magnetization
 augmentation part        8.0000000 magnetization

[...]

 Broyden mixing:
  rms(total) = 0.47486E+00    rms(broyden)= 0.47486E+00
  rms(prec ) = 0.93028E+00
  weight for this iteration     100.00

[...]

 eigenvalues of (default mixing * dielectric matrix)
  average eigenvalue GAMMA=   2.5599
  2.5599

[...]

 eigenvalue-minimisations  :  7376
 total energy-change (2. order) : 0.1737135E-09  (-0.3001652E-13)
 number of electron       8.0000001 magnetization
 augmentation part       -0.4583610 magnetization

 Broyden mixing:
  rms(total) = 0.11044E-06    rms(broyden)= 0.11044E-06
  rms(prec ) = 0.13636E-06
  weight for this iteration     100.00

 eigenvalues of (default mixing * dielectric matrix)
  average eigenvalue GAMMA=   1.8824
  3.2616  2.8039  2.6047  2.6047  2.5343  2.2502  1.6080  0.9517  0.9517  1.0467
  0.9908  0.9800

[...]

--------------------------------------- Iteration      1(  18)  ---------------------------------------

 eigenvalue-minimisations  :  7064
 total energy-change (2. order) :-0.4604317E-10  (-0.1929111E-13)
 number of electron       8.0000001 magnetization
 augmentation part       -0.4583610 magnetization

 Free energy of the ion-electron system (eV)
  alpha Z        PSCENC =         3.29344055
  Ewald energy   TEWEN  =      -226.95087875
  -Hartree energ DENC   =       -15.16974980
  -exchange      EXHF   =         0.00000000
  -V(xc)+E(xc)   XCENC  =       -18.06039140
  PAW double counting   =       829.78306167     -794.80192961
  entropy T*S    EENTRO =        -0.00000000
  eigenvalues    EBANDS =         4.92380942
  atomic energy  EATOM  =       206.13270273
  Solvation  Ediel_sol  =         0.00000000
  free energy    TOTEN  =       -10.84993519 eV

  energy without entropy =      -10.84993519  energy(sigma->0) =      -10.84993519

 average (electrostatic) potential at core
  the test charge radii are     0.9892
  (the norm of the test charge is              1.0000)
       1 -83.4823       2 -83.4823

 E-fermi :   5.7968     XC(G=0):  -9.3277     alpha+bet :-11.7326

 Fermi energy:         5.7967910671

 k-point     1 :       0.0000    0.0000    0.0000
  band No.  band energies     occupation
      1      -6.1985      2.00000
      2       5.6166      2.00000
      3       5.6166      2.00000
      4       5.6166      2.00000
      5       8.1736      0.00000
      6       8.1736      0.00000
      7       8.1736      0.00000
      8       8.7513      0.00000

[...]

 k-point   752 :      -0.2667    0.5000    0.2333
  band No.  band energies     occupation
      1      -1.9771      2.00000
      2      -1.9771      2.00000
      3       1.8638      2.00000
      4       1.8638      2.00000
      5       9.7096      0.00000
      6       9.7096      0.00000
      7      10.7358      0.00000
      8      10.7358      0.00000

 soft charge-density along one line, spin component           1
         0         1         2         3         4         5         6         7         8         9
 total charge-density along one line

------------------------ aborting loop because EDIFF is reached ----------------------------------------

 total charge

# of ion       s       p       d       tot
    1        0.751   0.928   0.000   1.679
    2        0.751   0.928   0.000   1.679
tot          1.502   1.856   0.000   3.358

 VOLUME and BASIS-vectors are now :
  energy-cutoff  :      520.00
  volume of cell :       40.89
      direct lattice vectors                 reciprocal lattice vectors
     0.000000000  2.734291991  2.734291991    -0.182862694  0.182862694  0.182862694
     2.734291991  0.000000000  2.734291991     0.182862694 -0.182862694  0.182862694
     2.734291991  2.734291991  0.000000000     0.182862694  0.182862694 -0.182862694

  length of vectors
     3.866872817  3.866872817  3.866872817     0.316727477  0.316727477  0.316727477

 FORCES acting on ions
    electron-ion (+dipol)            ewald-force                    non-local-force                 convergence-correction
   0.564E-08 0.564E-08 0.809E-08   -.325E-15 -.901E-15 0.113E-15   0.208E-16 0.416E-16 0.486E-16   0.139E-12 0.138E-12 0.138E-12
   -.564E-08 -.564E-08 -.809E-08   0.471E-15 0.992E-15 -.560E-15   -.208E-16 -.347E-16 -.486E-16   -.137E-12 -.138E-12 -.136E-12
   -.435E-13 -.845E-13 -.123E-13   0.146E-15 0.902E-16 -.447E-15   0.000E+00 0.694E-17 0.000E+00   0.226E-14 0.646E-16 0.237E-14

 POSITION                                       TOTAL-FORCE (eV/Angst)
      0.00000      0.00000      0.00000         0.000000      0.000000      0.000000
      1.36715      1.36715      1.36715        -0.000000     -0.000000     -0.000000
    total drift:                               -0.000000     -0.000000     -0.000000

  FREE ENERGIE OF THE ION-ELECTRON SYSTEM (eV)
  free  energy   TOTEN  =       -10.84993519 eV

  energy  without entropy=      -10.84993519  energy(sigma->0) =      -10.84993519

 stress matrix after NEB project (eV)
      0.00000      0.00000      0.00000
      0.00000      0.00000      0.00000
      0.00000      0.00000      0.00000
  FORCES: max atom, RMS     0.000000    0.000000
  FORCE total and by dimension    0.000000    0.000000
  Stress total and by dimension    0.000000    0.000000

 total charge

# of ion       s       p       d       tot
    1        0.751   0.928   0.000   1.679
    2        0.751   0.928   0.000   1.679
tot          1.502   1.856   0.000   3.358