 vasp.6.4.2 20Jul23 (build Oct 16 2024 22:45:58) complex

 executed on             LinuxIFC date 2025.02.15  11:12:04

 INCAR:
   SYSTEM = Cu FCC
   PREC = Accurate
   EDIFF = 1E-10
   EDIFFG = -1E-5
   ISMEAR = 0
   SIGMA = 0.03
   GGA = PE
   ENCUT = 520
   NSW = 0
   IBRION = -1
   ISIF = 0
   LWAVE = .FALSE.

 POTCAR:    PAW_PBE Cu 22Jun2005
 POTCAR:    PAW_PBE Cu 22Jun2005
   VRHFIN =Cu: d10 p1

   TITEL  = PAW_PBE Cu 22Jun2005
   POMASS =   63.546; ZVAL   =   11.000    mass and valenz
   ENMAX  =  295.446; ENMIN  =  221.585 eV

  PAW_PBE Cu 22Jun2005                  :

 POSCAR: Copper  [FCC,FCC,cF4] (STD_PRIM doi:10.1
  positions in direct lattice
  velocities in cartesian coordinates
 exchange correlation table for  LEXCH =        8
   RHO(1)=    0.500       N(1)  =     2000
   RHO(2)=  100.500       N(2)  =     4000

 VTST: version 4.1, (05/19/21)

 CHAIN: initializing optimizer

 OPT: Using VASP Dynamics algorithm
 CHAIN: Read ICHAIN            0

 POSCAR: Copper  [FCC,FCC,cF4] (STD_PRIM doi:10.1
  positions in direct lattice
  velocities in cartesian coordinates

 ion  position               nearest neighbor table
   1  0.000  0.000  0.000-

  LATTYP: Found a face centered cubic cell.
 ALAT       =     3.6368206731

  Lattice vectors:

 A1 = (   0.0000000000,   1.8184103366,   1.8184103366)
 A2 = (   1.8184103366,   0.0000000000,   1.8184103366)
 A3 = (   1.8184103366,   1.8184103366,   0.0000000000)

Analysis of symmetry for initial positions (statically):
 Subroutine PRICEL returns:
 Original cell was already a primitive cell.

 Routine SETGRP: Setting up the symmetry group for a
 face centered cubic supercell.

 Subroutine GETGRP returns: Found 48 space group operations
 (whereof 48 operations were pure point group operations)
 out of a pool of 48 trial point group operations.

The static configuration has the point symmetry O_h .

Analysis of symmetry for dynamics (positions and initial velocities):
 Subroutine PRICEL returns:
 Original cell was already a primitive cell.

 Routine SETGRP: Setting up the symmetry group for a
 face centered cubic supercell.

 Subroutine GETGRP returns: Found 48 space group operations
 (whereof 48 operations were pure point group operations)
 out of a pool of 48 trial point group operations.

The dynamic configuration has the point symmetry O_h .

 Subroutine INISYM returns: Found 48 space group operations
 (whereof 48 operations are pure point group operations),
 and found     1 'primitive' translations

                                     Primitive cell

  volume of cell :      12.0256

  direct lattice vectors                    reciprocal lattice vectors
     0.000000000  1.818410337  1.818410337    -0.274965441  0.274965441  0.274965441
     1.818410337  0.000000000  1.818410337     0.274965441 -0.274965441  0.274965441
     1.818410337  1.818410337  0.000000000     0.274965441  0.274965441 -0.274965441

  length of vectors
     2.571620560  2.571620560  2.571620560     0.476254114  0.476254114  0.476254114

  position of ions in fractional coordinates (direct lattice)
     0.000000000  0.000000000  0.000000000

  ion indices of the primitive-cell ions
   primitive index   ion index
                 1           1

 KPOINTS: KPOINTS

Automatic generation of k-mesh.
 Grid dimensions read from file:
 generate k-points for:   10   10   10

 Generating k-lattice:

  Cartesian coordinates                     Fractional coordinates (reciprocal lattice)
    -0.027496544  0.027496544  0.027496544     0.100000000  0.000000000  0.000000000
     0.027496544 -0.027496544  0.027496544     0.000000000  0.100000000  0.000000000
     0.027496544  0.027496544 -0.027496544     0.000000000  0.000000000  0.100000000

  Length of vectors
     0.047625411  0.047625411  0.047625411

  Shift w.r.t. Gamma in fractional coordinates (k-lattice)
     0.000000000  0.000000000  0.000000000

 Subroutine IBZKPT returns following result:

 Found     47 irreducible k-points:

 Following reciprocal coordinates:
            Coordinates               Weight
  0.000000  0.000000  0.000000      1.000000
  0.100000  0.000000  0.000000      8.000000
  0.200000  0.000000  0.000000      8.000000
  0.300000  0.000000  0.000000      8.000000
  0.400000  0.000000  0.000000      8.000000
  0.500000  0.000000  0.000000      4.000000
  0.100000  0.100000  0.000000      6.000000
  0.200000  0.100000  0.000000     24.000000
  0.300000  0.100000  0.000000     24.000000
  0.400000  0.100000  0.000000     24.000000
  0.500000  0.100000  0.000000     24.000000
 -0.400000  0.100000  0.000000     24.000000
 -0.300000  0.100000  0.000000     24.000000
 -0.200000  0.100000  0.000000     24.000000
 -0.100000  0.100000  0.000000     12.000000
  0.200000  0.200000  0.000000      6.000000
  0.300000  0.200000  0.000000     24.000000
  0.400000  0.200000  0.000000     24.000000
  0.500000  0.200000  0.000000     24.000000
 -0.400000  0.200000  0.000000     24.000000
 -0.300000  0.200000  0.000000     24.000000
 -0.200000  0.200000  0.000000     12.000000
  0.300000  0.300000  0.000000      6.000000
  0.400000  0.300000  0.000000     24.000000
  0.500000  0.300000  0.000000     24.000000
 -0.400000  0.300000  0.000000     24.000000
 -0.300000  0.300000  0.000000     12.000000
  0.400000  0.400000  0.000000      6.000000
  0.500000  0.400000  0.000000     24.000000
 -0.400000  0.400000  0.000000     12.000000
  0.500000  0.500000  0.000000      3.000000
  0.300000  0.200000  0.100000     24.000000
  0.400000  0.200000  0.100000     48.000000
  0.500000  0.200000  0.100000     48.000000
 -0.400000  0.200000  0.100000     24.000000
  0.400000  0.300000  0.100000     24.000000
  0.500000  0.300000  0.100000     48.000000
 -0.400000  0.300000  0.100000     48.000000
 -0.300000  0.300000  0.100000     48.000000
 -0.200000  0.300000  0.100000     24.000000
  0.500000  0.400000  0.100000     24.000000
 -0.400000  0.400000  0.100000     48.000000
 -0.300000  0.400000  0.100000     24.000000
 -0.400000  0.500000  0.100000     12.000000
 -0.400000  0.400000  0.200000     24.000000
 -0.300000  0.400000  0.200000     24.000000
 -0.300000  0.500000  0.200000     12.000000

 Following cartesian coordinates:
            Coordinates               Weight
  0.000000  0.000000  0.000000      1.000000
 -0.027497  0.027497  0.027497      8.000000
 -0.054993  0.054993  0.054993      8.000000
 -0.082490  0.082490  0.082490      8.000000
 -0.109986  0.109986  0.109986      8.000000
 -0.137483  0.137483  0.137483      4.000000
  0.000000  0.000000  0.054993      6.000000
 -0.027497  0.027497  0.082490     24.000000
 -0.054993  0.054993  0.109986     24.000000
 -0.082490  0.082490  0.137483     24.000000
 -0.109986  0.109986  0.164979     24.000000
  0.137483 -0.137483 -0.082490     24.000000
  0.109986 -0.109986 -0.054993     24.000000
  0.082490 -0.082490 -0.027497     24.000000
  0.054993 -0.054993  0.000000     12.000000
  0.000000  0.000000  0.109986      6.000000
 -0.027497  0.027497  0.137483     24.000000
 -0.054993  0.054993  0.164979     24.000000
 -0.082490  0.082490  0.192476     24.000000
  0.164979 -0.164979 -0.054993     24.000000
  0.137483 -0.137483 -0.027497     24.000000
  0.109986 -0.109986  0.000000     12.000000
  0.000000  0.000000  0.164979      6.000000
 -0.027497  0.027497  0.192476     24.000000
 -0.054993  0.054993  0.219972     24.000000
  0.192476 -0.192476 -0.027497     24.000000
  0.164979 -0.164979  0.000000     12.000000
  0.000000  0.000000  0.219972      6.000000
 -0.027497  0.027497  0.247469     24.000000
  0.219972 -0.219972  0.000000     12.000000
  0.000000  0.000000  0.274965      3.000000
  0.000000  0.054993  0.109986     24.000000
 -0.027497  0.082490  0.137483     48.000000
 -0.054993  0.109986  0.164979     48.000000
  0.192476 -0.137483 -0.082490     24.000000
  0.000000  0.054993  0.164979     24.000000
 -0.027497  0.082490  0.192476     48.000000
  0.219972 -0.164979 -0.054993     48.000000
  0.192476 -0.137483 -0.027497     48.000000
  0.164979 -0.109986 -0.000000     24.000000
  0.000000  0.054993  0.219972     24.000000
  0.247469 -0.192476 -0.027497     48.000000
  0.219972 -0.164979 -0.000000     24.000000
  0.274965 -0.219972  0.000000     12.000000
  0.274965 -0.164979 -0.054993     24.000000
  0.247469 -0.137483 -0.027497     24.000000
  0.274965 -0.164979  0.000000     12.000000

 SYSTEM =  Cu FCC
 POSCAR =  Copper  [FCC,FCC,cF4] (STD_PRIM doi:10.1

 Startparameter for this run:
   NWRITE =      2    write-flag & timer
   PREC   = accura    normal or accurate (medium, high low for compatibility)
   ISTART =      0    job   : 0-new  1-cont  2-samecut
   ICHARG =      2    charge: 1-file 2-atom 10-const
   ISPIN  =      1    spin polarized calculation?
   LNONCOLLINEAR =      F non collinear calculations
   LSORBIT =      F    spin-orbit coupling
   INIWAV =      1    electr: 0-lowe 1-rand  2-diag
   LASPH  =      F    aspherical Exc in radial PAW
 Electronic Relaxation 1
   ENCUT  =  520.0 eV  38.22 Ry    6.18 a.u.   4.78  4.78  4.78*2*pi/ulx,y,z
   ENINI  =  520.0     initial cutoff
   ENAUG  =  587.0 eV  augmentation charge cutoff
   NELM   =     60;   NELMIN=  2; NELMDL=  0     # of ELM steps
   EDIFF  = 0.1E-09   stopping-criterion for ELM
   LREAL  =      F    real-space projection
   NLSPLINE    = F    spline interpolate recip. space projectors
   LCOMPAT=      F    compatible to vasp.4.4
   GGA_COMPAT  = T    GGA compatible to vasp.4.4-vasp.4.6
   LMAXPAW     = -100 max onsite density
   LMAXMIX     =    2 max onsite mixed and CHGCAR
   VOSKOWN=      0    Vosko Wilk Nusair interpolation
   ROPT   =    0.00000
 Ionic relaxation
   EDIFFG = -.1E-04   stopping-criterion for IOM
   NSW    =      0    number of steps for IOM
   NBLOCK =      1;   KBLOCK =      1    inner block; outer block
   IBRION =     -1    ionic relax: 0-MD 1-quasi-New 2-CG
   NFREE  =      0    steps in history (QN), initial steepest desc. (CG)
   ISIF   =      0    stress and relaxation
   IWAVPR =     10    prediction:  0-non 1-charg 2-wave 3-comb
   ISYM   =      2    0-nonsym 1-usesym 2-fastsym
   LCORR  =      T    Harris-Foulkes like correction to forces

   POTIM  = 0.5000    time-step for ionic-motion
   TEIN   =    0.0    initial temperature
   TEBEG  =    0.0;   TEEND  =   0.0 temperature during run
   SMASS  =  -3.00    Nose mass-parameter (am)
   estimated Nose-frequenzy (Omega)   =  0.10E-29 period in steps = 0.13E+47 mass=  -0.151E-27a.u.
   SCALEE = 1.0000    scale energy and forces
   NPACO  =    256;   APACO  = 10.0  distance and # of slots for P.C.
   PSTRESS=    0.0 pullay stress

  Mass of Ions in am
   POMASS =  63.55
  Ionic Valenz
   ZVAL   =  11.00
  Atomic Wigner-Seitz radii
  virtual crystal weights
   VCA    =   1.00
   NELECT =      11.0000    total number of electrons
   NUPDOWN=      -1.0000    fix difference up-down

 DOS related values:
   EMIN   =  10.00;   EMAX   =-10.00  energy-range for DOS
   EFERMI =   0.00;   METHOD = LEGACY
   ISMEAR =     0;   SIGMA  =   0.03  broadening in eV -4-tet -1-fermi 0-gaus

 Electronic relaxation 2 (details)
   IALGO  =     38    algorithm
   LDIAG  =      T    sub-space diagonalisation (order eigenvalues)
[...]
   KPOINTS_OPT_MODE=     1    mode for optional k-point grid

 Orbital magnetization related:
   ORBITALMAG=     F  switch on orbital magnetization
   LCHIMAG   =     F  perturbation theory with respect to B field
   DQ        =  0.001000  dq finite difference perturbation B field
   LLRAUG    =     F  two centre corrections for induced B field
   LBONE     =     F  B-component reconstruction in AE one-centre
   LVGVCALC  =     T  calculate vGv susceptibility
   LVGVAPPL  =     F  apply vGv susceptibility instead of pGv for G=0

 Random number generation:
   RANDOM_GENERATOR = DEFAULT
   PCG_SEED         = not used

 Static calculation
 charge density and potential will be updated during run
 non-spin polarized calculation
 Variant of blocked Davidson
 Davidson routine will perform the subspace rotation
 perform sub-space diagonalisation
    after iterative eigenvector-optimisation
 modified Broyden-mixing scheme, WC =      100.0
 initial mixing is a Kerker type mixing with AMIX =  0.4000 and BMIX =      1.0000
 Hartree-type preconditioning will be used
 using additional bands            6
 reciprocal scheme for non local part
 use partial core corrections
 calculate Harris-corrections to forces
   (improved forces if not selfconsistent)
 use gradient corrections
 use of overlap-Matrix (Vanderbilt PP)
 Gauss-broadening in eV      SIGMA  =   0.03

  energy-cutoff  :      520.00
  volume of cell :       12.03
      direct lattice vectors                 reciprocal lattice vectors
     0.000000000  1.818410337  1.818410337    -0.274965441  0.274965441  0.274965441
     1.818410337  0.000000000  1.818410337     0.274965441 -0.274965441  0.274965441
     1.818410337  1.818410337  0.000000000     0.274965441  0.274965441 -0.274965441

[...]

 k-points in units of 2pi/SCALE and weight: KPOINTS
   0.00000000  0.00000000  0.00000000       0.001
  -0.02749654  0.02749654  0.02749654       0.008
  -0.05499309  0.05499309  0.05499309       0.008
  -0.08248963  0.08248963  0.08248963       0.008
  -0.10998618  0.10998618  0.10998618       0.008
  -0.13748272  0.13748272  0.13748272       0.004
   0.00000000  0.00000000  0.05499309       0.006
  -0.02749654  0.02749654  0.08248963       0.024
  -0.05499309  0.05499309  0.10998618       0.024
  -0.08248963  0.08248963  0.13748272       0.024
  -0.10998618  0.10998618  0.16497926       0.024
   0.13748272 -0.13748272 -0.08248963       0.024
   0.10998618 -0.10998618 -0.05499309       0.024
   0.08248963 -0.08248963 -0.02749654       0.024
   0.05499309 -0.05499309  0.00000000       0.012
   0.00000000  0.00000000  0.10998618       0.006
  -0.02749654  0.02749654  0.13748272       0.024
  -0.05499309  0.05499309  0.16497926       0.024
  -0.08248963  0.08248963  0.19247581       0.024
   0.16497926 -0.16497926 -0.05499309       0.024
   0.13748272 -0.13748272 -0.02749654       0.024
   0.10998618 -0.10998618  0.00000000       0.012
   0.00000000  0.00000000  0.16497926       0.006
  -0.02749654  0.02749654  0.19247581       0.024
  -0.05499309  0.05499309  0.21997235       0.024
   0.19247581 -0.19247581 -0.02749654       0.024
   0.16497926 -0.16497926  0.00000000       0.012
   0.00000000  0.00000000  0.21997235       0.006
  -0.02749654  0.02749654  0.24746890       0.024
   0.21997235 -0.21997235  0.00000000       0.012
   0.00000000  0.00000000  0.27496544       0.003
   0.00000000  0.05499309  0.10998618       0.024
  -0.02749654  0.08248963  0.13748272       0.048
  -0.05499309  0.10998618  0.16497926       0.048
   0.19247581 -0.13748272 -0.08248963       0.024
   0.00000000  0.05499309  0.16497926       0.024
  -0.02749654  0.08248963  0.19247581       0.048
   0.21997235 -0.16497926 -0.05499309       0.048
   0.19247581 -0.13748272 -0.02749654       0.048
   0.16497926 -0.10998618 -0.00000000       0.024
   0.00000000  0.05499309  0.21997235       0.024
   0.24746890 -0.19247581 -0.02749654       0.048
   0.21997235 -0.16497926 -0.00000000       0.024
   0.27496544 -0.21997235  0.00000000       0.012
   0.27496544 -0.16497926 -0.05499309       0.024
   0.24746890 -0.13748272 -0.02749654       0.024
   0.27496544 -0.16497926  0.00000000       0.012

 k-points in reciprocal lattice and weights: KPOINTS
   0.00000000  0.00000000  0.00000000       0.001
   0.10000000  0.00000000  0.00000000       0.008
   0.20000000  0.00000000  0.00000000       0.008
   0.30000000  0.00000000  0.00000000       0.008
   0.40000000  0.00000000  0.00000000       0.008
   0.50000000  0.00000000  0.00000000       0.004
   0.10000000  0.10000000  0.00000000       0.006
   0.20000000  0.10000000  0.00000000       0.024
   0.30000000  0.10000000  0.00000000       0.024
   0.40000000  0.10000000  0.00000000       0.024
   0.50000000  0.10000000  0.00000000       0.024
  -0.40000000  0.10000000  0.00000000       0.024
  -0.30000000  0.10000000  0.00000000       0.024
  -0.20000000  0.10000000  0.00000000       0.024
  -0.10000000  0.10000000  0.00000000       0.012
   0.20000000  0.20000000  0.00000000       0.006
   0.30000000  0.20000000  0.00000000       0.024
   0.40000000  0.20000000  0.00000000       0.024
   0.50000000  0.20000000  0.00000000       0.024
  -0.40000000  0.20000000  0.00000000       0.024
  -0.30000000  0.20000000  0.00000000       0.024
  -0.20000000  0.20000000  0.00000000       0.012
   0.30000000  0.30000000  0.00000000       0.006
   0.40000000  0.30000000  0.00000000       0.024
   0.50000000  0.30000000  0.00000000       0.024
  -0.40000000  0.30000000  0.00000000       0.024
  -0.30000000  0.30000000  0.00000000       0.012
   0.40000000  0.40000000  0.00000000       0.006
   0.50000000  0.40000000  0.00000000       0.024
  -0.40000000  0.40000000  0.00000000       0.012
   0.50000000  0.50000000  0.00000000       0.003
   0.30000000  0.20000000  0.10000000       0.024
   0.40000000  0.20000000  0.10000000       0.048
   0.50000000  0.20000000  0.10000000       0.048
  -0.40000000  0.20000000  0.10000000       0.024
   0.40000000  0.30000000  0.10000000       0.024
   0.50000000  0.30000000  0.10000000       0.048
  -0.40000000  0.30000000  0.10000000       0.048
  -0.30000000  0.30000000  0.10000000       0.048
  -0.20000000  0.30000000  0.10000000       0.024
   0.50000000  0.40000000  0.10000000       0.024
  -0.40000000  0.40000000  0.10000000       0.048
  -0.30000000  0.40000000  0.10000000       0.024
  -0.40000000  0.50000000  0.10000000       0.012
  -0.40000000  0.40000000  0.20000000       0.024
  -0.30000000  0.40000000  0.20000000       0.024
  -0.30000000  0.50000000  0.20000000       0.012

 position of ions in fractional coordinates (direct lattice)
   0.00000000  0.00000000  0.00000000

 position of ions in cartesian coordinates  (Angst):
   0.00000000  0.00000000  0.00000000

 k-point   1 :   0.0000 0.0000 0.0000  plane waves:     331
 k-point   2 :   0.1000 0.0000 0.0000  plane waves:     329
 k-point   3 :   0.2000 0.0000 0.0000  plane waves:     320
 k-point   4 :   0.3000 0.0000 0.0000  plane waves:     317
 k-point   5 :   0.4000 0.0000 0.0000  plane waves:     323
 k-point   6 :   0.5000 0.0000 0.0000  plane waves:     332
 k-point   7 :   0.1000 0.1000 0.0000  plane waves:     327
 k-point   8 :   0.2000 0.1000 0.0000  plane waves:     321
 k-point   9 :   0.3000 0.1000 0.0000  plane waves:     322
 k-point  10 :   0.4000 0.1000 0.0000  plane waves:     328
 k-point  11 :   0.5000 0.1000 0.0000  plane waves:     329
 k-point  12 :  -0.4000 0.1000 0.0000  plane waves:     326
 k-point  13 :  -0.3000 0.1000 0.0000  plane waves:     320
 k-point  14 :  -0.2000 0.1000 0.0000  plane waves:     320
 k-point  15 :  -0.1000 0.1000 0.0000  plane waves:     325
 k-point  16 :   0.2000 0.2000 0.0000  plane waves:     323
 k-point  17 :   0.3000 0.2000 0.0000  plane waves:     322
 k-point  18 :   0.4000 0.2000 0.0000  plane waves:     324
 k-point  19 :   0.5000 0.2000 0.0000  plane waves:     323
 k-point  20 :  -0.4000 0.2000 0.0000  plane waves:     328
 k-point  21 :  -0.3000 0.2000 0.0000  plane waves:     325
 k-point  22 :  -0.2000 0.2000 0.0000  plane waves:     323
 k-point  23 :   0.3000 0.3000 0.0000  plane waves:     323
 k-point  24 :   0.4000 0.3000 0.0000  plane waves:     327
 k-point  25 :   0.5000 0.3000 0.0000  plane waves:     326
 k-point  26 :  -0.4000 0.3000 0.0000  plane waves:     324
 k-point  27 :  -0.3000 0.3000 0.0000  plane waves:     329
 k-point  28 :   0.4000 0.4000 0.0000  plane waves:     322
 k-point  29 :   0.5000 0.4000 0.0000  plane waves:     328
 k-point  30 :  -0.4000 0.4000 0.0000  plane waves:     322
 k-point  31 :   0.5000 0.5000 0.0000  plane waves:     326
 k-point  32 :   0.3000 0.2000 0.1000  plane waves:     320
 k-point  33 :   0.4000 0.2000 0.1000  plane waves:     321
 k-point  34 :   0.5000 0.2000 0.1000  plane waves:     323
 k-point  35 :  -0.4000 0.2000 0.1000  plane waves:     326
 k-point  36 :   0.4000 0.3000 0.1000  plane waves:     323
 k-point  37 :   0.5000 0.3000 0.1000  plane waves:     324
 k-point  38 :  -0.4000 0.3000 0.1000  plane waves:     322
 k-point  39 :  -0.3000 0.3000 0.1000  plane waves:     324
 k-point  40 :  -0.2000 0.3000 0.1000  plane waves:     324
 k-point  41 :   0.5000 0.4000 0.1000  plane waves:     326
 k-point  42 :  -0.4000 0.4000 0.1000  plane waves:     327
 k-point  43 :  -0.3000 0.4000 0.1000  plane waves:     325
 k-point  44 :  -0.4000 0.5000 0.1000  plane waves:     324
 k-point  45 :  -0.4000 0.4000 0.2000  plane waves:     325
 k-point  46 :  -0.3000 0.4000 0.2000  plane waves:     324
 k-point  47 :  -0.3000 0.5000 0.2000  plane waves:     322

 maximum and minimum number of plane-waves per node :       332      317

 maximum number of plane-waves:       332
 maximum index in each direction:
   IXMAX=    5   IYMAX=    4   IZMAX=    4
   IXMIN=   -5   IYMIN=   -5   IZMIN=   -4

 serial   3D FFT for wavefunctions
 parallel 3D FFT for charge:
    minimum data exchange during FFTs selected (reduces bandwidth)

 Broyden mixing: mesh for mixing (old mesh)
   NGX =  9   NGY =  9   NGZ =  9
  (NGX  = 40   NGY  = 40   NGZ  = 40)
  gives a total of    729 points

 initial charge density was supplied:
 charge density of overlapping atoms calculated
 number of electron      11.0000000 magnetization
 keeping initial charge density in first step

 Maximum index for augmentation-charges         4713 (set IRDMAX)

 First call to EWALD:  gamma=   0.774
 Maximum number of real-space cells 3x 3x 3
 Maximum number of reciprocal cells 3x 3x 3

--------------------------------------- Ionic step        1  -------------------------------------------

--------------------------------------- Iteration      1(   1)  ---------------------------------------

 eigenvalue-minimisations  :  1276
 total energy-change (2. order) : 0.3943478E+02  (-0.5351495E+03)
 number of electron      11.0000000 magnetization
 augmentation part       11.0000000 magnetization

 Free energy of the ion-electron system (eV)
  alpha Z        PSCENC =        60.81441780
  Ewald energy   TEWEN  =     -1098.28698219
  -Hartree energ DENC   =      -365.46790050
  -exchange      EXHF   =         0.00000000
  -V(xc)+E(xc)   XCENC  =        45.73508064
  PAW double counting   =      1228.20665988    -1334.04846713
  entropy T*S    EENTRO =        -0.00040265
  eigenvalues    EBANDS =       111.50532238
  atomic energy  EATOM  =      1390.97705399
  Solvation  Ediel_sol  =         0.00000000
  free energy    TOTEN  =        39.43478223 eV

  energy without entropy =       39.43518488  energy(sigma->0) =       39.43498356

[...]

 eigenvalue-minimisations  :  1168
 total energy-change (2. order) :-0.4276912E+02  (-0.3905536E+02)
 number of electron      11.0000000 magnetization
 augmentation part       11.0000000 magnetization

[...]

 Broyden mixing:
  rms(total) = 0.76295E+00    rms(broyden)= 0.76293E+00
  rms(prec ) = 0.29008E+01
  weight for this iteration     100.00

[...]

 eigenvalues of (default mixing * dielectric matrix)
  average eigenvalue GAMMA=   0.6561
  0.6561

[...]

 eigenvalue-minimisations  :   620
 total energy-change (2. order) : 0.2871730E-09  (-0.4397786E-13)
 number of electron      10.9999995 magnetization
 augmentation part        7.0143449 magnetization

 Broyden mixing:
  rms(total) = 0.76119E-08    rms(broyden)= 0.76106E-08
  rms(prec ) = 0.20822E-07
  weight for this iteration     100.00

 eigenvalues of (default mixing * dielectric matrix)
  average eigenvalue GAMMA=   1.7361
  4.5921  2.7668  2.5686  2.5304  2.5304  2.1395  0.6516  1.0258  1.0258  0.9886
  0.9886  0.9482  0.9482  0.6006

[...]

--------------------------------------- Iteration      1(  20)  ---------------------------------------

 eigenvalue-minimisations  :   632
 total energy-change (2. order) :-0.1182343E-10  (-0.1132697E-13)
 number of electron      10.9999995 magnetization
 augmentation part        7.0143449 magnetization

 Free energy of the ion-electron system (eV)
  alpha Z        PSCENC =        60.81441780
  Ewald energy   TEWEN  =     -1098.28698219
  -Hartree energ DENC   =      -342.31779594
  -exchange      EXHF   =         0.00000000
  -V(xc)+E(xc)   XCENC  =        44.63938130
  PAW double counting   =      1310.79285370    -1418.58480588
  entropy T*S    EENTRO =        -0.00034958
  eigenvalues    EBANDS =        48.25271994
  atomic energy  EATOM  =      1390.97705399
  Solvation  Ediel_sol  =         0.00000000
  free energy    TOTEN  =        -3.71350686 eV

  energy without entropy =       -3.71315728  energy(sigma->0) =       -3.71333207

 average (electrostatic) potential at core
  the test charge radii are     0.9430
  (the norm of the test charge is              1.0000)
       1 -63.8756

 E-fermi :   7.2532     XC(G=0): -12.6210     alpha+bet :-13.1839

 Fermi energy:         7.2532273695

 k-point     1 :       0.0000    0.0000    0.0000
  band No.  band energies     occupation
      1      -1.8506      2.00000
      2       4.3939      2.00000
      3       4.3939      2.00000
      4       4.3939      2.00000
      5       5.1988      2.00000
      6       5.1988      2.00000
      7      29.8133      0.00000
      8      32.3179      0.00000
      9      32.3179      0.00000
     10      32.3179      0.00000
     11      34.7966      0.00000
     12      34.7966      0.00000

[...]

 k-point    47 :      -0.3000    0.5000    0.2000
  band No.  band energies     occupation
      1       3.2273      2.00000
      2       3.5857      2.00000
      3       4.2936      2.00000
      4       5.2353      2.00000
      5       5.8858      2.00000
      6      12.1710      0.00000
      7      14.9425      0.00000
      8      15.1795      0.00000
      9      16.6101      0.00000
     10      32.5213      0.00000
     11      34.8788      0.00000
     12      38.3476      0.00000

 soft charge-density along one line, spin component           1
         0         1         2         3         4         5         6         7         8         9
 total charge-density along one line

------------------------ aborting loop because EDIFF is reached ----------------------------------------

 VOLUME and BASIS-vectors are now :
  energy-cutoff  :      520.00
  volume of cell :       12.03
      direct lattice vectors                 reciprocal lattice vectors
     0.000000000  1.818410337  1.818410337    -0.274965441  0.274965441  0.274965441
     1.818410337  0.000000000  1.818410337     0.274965441 -0.274965441  0.274965441
     1.818410337  1.818410337  0.000000000     0.274965441  0.274965441 -0.274965441

  length of vectors
     2.571620560  2.571620560  2.571620560     0.476254114  0.476254114  0.476254114

 FORCES acting on ions
    electron-ion (+dipol)            ewald-force                    non-local-force                 convergence-correction
   -.125E-13 0.247E-14 0.251E-15   -.176E-14 0.198E-14 -.327E-14   0.000E+00 0.000E+00 0.162E-26   0.277E-14 -.741E-14 -.211E-13
   -.125E-13 0.247E-14 0.251E-15   -.176E-14 0.198E-14 -.327E-14   0.000E+00 0.000E+00 0.162E-26   0.277E-14 -.741E-14 -.211E-13

 POSITION                                       TOTAL-FORCE (eV/Angst)
      0.00000      0.00000      0.00000         0.000000     -0.000000      0.000000
    total drift:                               -0.000000     -0.000000     -0.000000

  FREE ENERGIE OF THE ION-ELECTRON SYSTEM (eV)
  free  energy   TOTEN  =        -3.71350686 eV

  energy  without entropy=       -3.71315728  energy(sigma->0) =       -3.71333207

 stress matrix after NEB project (eV)
      0.00000      0.00000      0.00000
      0.00000      0.00000      0.00000
      0.00000      0.00000      0.00000
  FORCES: max atom, RMS     0.000000    0.000000
  FORCE total and by dimension    0.000000    0.000000
  Stress total and by dimension    0.000000    0.000000