 vasp.6.4.2 20Jul23 (build Oct 16 2024 22:45:58) complex

 executed on             LinuxIFC date 2025.01.29  08:36:23

 INCAR:
   SYSTEM = Si FCC
   PREC = Accurate
   EDIFF = 1E-10
   EDIFFG = -1E-5
   ISMEAR = 0
   SIGMA = 0.03
   GGA = PE
   ENCUT = 520
   NSW = 0
   IBRION = -1
   ISIF = 0
   LWAVE = .FALSE.

 POTCAR:    PAW_PBE Si 05Jan2001
 POTCAR:    PAW_PBE Si 05Jan2001
   VRHFIN =Si: s2p2

   TITEL  = PAW_PBE Si 05Jan2001
   POMASS =   28.085; ZVAL   =    4.000    mass and valenz
   ENMAX  =  245.345; ENMIN  =  184.009 eV

  PAW_PBE Si 05Jan2001                  :

 POSCAR: Si [FCC,FCC,cF8]
  positions in direct lattice
  velocities in cartesian coordinates
 exchange correlation table for  LEXCH =        8
   RHO(1)=    0.500       N(1)  =     2000
   RHO(2)=  100.500       N(2)  =     4000

 VTST: version 4.1, (05/19/21)

 CHAIN: initializing optimizer

 OPT: Using VASP Dynamics algorithm
 CHAIN: Read ICHAIN            0

 POSCAR: Si [FCC,FCC,cF8]
  positions in direct lattice
  velocities in cartesian coordinates

 ion  position               nearest neighbor table
   1  0.000  0.000  0.000-   2 2.37   2 2.37   2 2.37   2 2.37
   2  0.250  0.250  0.250-   1 2.37   1 2.37   1 2.37   1 2.37

  LATTYP: Found a face centered cubic cell.
 ALAT       =     5.4685839824

  Lattice vectors:

 A1 = (   0.0000000000,   2.7342919912,   2.7342919912)
 A2 = (   2.7342919912,   0.0000000000,   2.7342919912)
 A3 = (   2.7342919912,   2.7342919912,   0.0000000000)

Analysis of symmetry for initial positions (statically):
 Subroutine PRICEL returns:
 Original cell was already a primitive cell.

 Routine SETGRP: Setting up the symmetry group for a
 face centered cubic supercell.

 Subroutine GETGRP returns: Found 48 space group operations
 (whereof 24 operations were pure point group operations)
 out of a pool of 48 trial point group operations.

The static configuration has the point symmetry T_d .
 The point group associated with its full space group is O_h .

Analysis of symmetry for dynamics (positions and initial velocities):
 Subroutine PRICEL returns:
 Original cell was already a primitive cell.

 Routine SETGRP: Setting up the symmetry group for a
 face centered cubic supercell.

 Subroutine GETGRP returns: Found 48 space group operations
 (whereof 24 operations were pure point group operations)
 out of a pool of 48 trial point group operations.

The dynamic configuration has the point symmetry T_d .
 The point group associated with its full space group is O_h .

 Subroutine INISYM returns: Found 48 space group operations
 (whereof 24 operations are pure point group operations),
 and found     1 'primitive' translations

                                     Primitive cell

  volume of cell :      40.8851

  direct lattice vectors                    reciprocal lattice vectors
     0.000000000  2.734291991  2.734291991    -0.182862694  0.182862694  0.182862694
     2.734291991  0.000000000  2.734291991     0.182862694 -0.182862694  0.182862694
     2.734291991  2.734291991  0.000000000     0.182862694  0.182862694 -0.182862694

  length of vectors
     3.866872817  3.866872817  3.866872817     0.316727477  0.316727477  0.316727477

  position of ions in fractional coordinates (direct lattice)
     0.000000000  0.000000000  0.000000000
     0.250000000  0.250000000  0.250000000

  ion indices of the primitive-cell ions
   primitive index   ion index
                 1           1
                 2           2

 KPOINTS: KPOINTS

Automatic generation of k-mesh.
 Grid dimensions read from file:
 generate k-points for:   10   10   10

 Generating k-lattice:

  Cartesian coordinates                     Fractional coordinates (reciprocal lattice)
    -0.018286269  0.018286269  0.018286269     0.100000000  0.000000000  0.000000000
     0.018286269 -0.018286269  0.018286269     0.000000000  0.100000000  0.000000000
     0.018286269  0.018286269 -0.018286269     0.000000000  0.000000000  0.100000000

  Length of vectors
     0.031672748  0.031672748  0.031672748

  Shift w.r.t. Gamma in fractional coordinates (k-lattice)
     0.000000000  0.000000000  0.000000000

 Subroutine IBZKPT returns following result:

 Found     47 irreducible k-points:

 Following reciprocal coordinates:
            Coordinates               Weight
  0.000000  0.000000  0.000000      1.000000
  0.100000  0.000000  0.000000      8.000000
  0.200000  0.000000  0.000000      8.000000
  0.300000  0.000000  0.000000      8.000000
  0.400000  0.000000  0.000000      8.000000
  0.500000  0.000000  0.000000      4.000000
  0.100000  0.100000  0.000000      6.000000
  0.200000  0.100000  0.000000     24.000000
  0.300000  0.100000  0.000000     24.000000
  0.400000  0.100000  0.000000     24.000000
  0.500000  0.100000  0.000000     24.000000
 -0.400000  0.100000  0.000000     24.000000
 -0.300000  0.100000  0.000000     24.000000
 -0.200000  0.100000  0.000000     24.000000
 -0.100000  0.100000  0.000000     12.000000
  0.200000  0.200000  0.000000      6.000000
  0.300000  0.200000  0.000000     24.000000
  0.400000  0.200000  0.000000     24.000000
  0.500000  0.200000  0.000000     24.000000
 -0.400000  0.200000  0.000000     24.000000
 -0.300000  0.200000  0.000000     24.000000
 -0.200000  0.200000  0.000000     12.000000
  0.300000  0.300000  0.000000      6.000000
  0.400000  0.300000  0.000000     24.000000
  0.500000  0.300000  0.000000     24.000000
 -0.400000  0.300000  0.000000     24.000000
 -0.300000  0.300000  0.000000     12.000000
  0.400000  0.400000  0.000000      6.000000
  0.500000  0.400000  0.000000     24.000000
 -0.400000  0.400000  0.000000     12.000000
  0.500000  0.500000  0.000000      3.000000
  0.300000  0.200000  0.100000     24.000000
  0.400000  0.200000  0.100000     48.000000
  0.500000  0.200000  0.100000     48.000000
 -0.400000  0.200000  0.100000     24.000000
  0.400000  0.300000  0.100000     24.000000
  0.500000  0.300000  0.100000     48.000000
 -0.400000  0.300000  0.100000     48.000000
 -0.300000  0.300000  0.100000     48.000000
 -0.200000  0.300000  0.100000     24.000000
  0.500000  0.400000  0.100000     24.000000
 -0.400000  0.400000  0.100000     48.000000
 -0.300000  0.400000  0.100000     24.000000
 -0.400000  0.500000  0.100000     12.000000
 -0.400000  0.400000  0.200000     24.000000
 -0.300000  0.400000  0.200000     24.000000
 -0.300000  0.500000  0.200000     12.000000

 Following cartesian coordinates:
            Coordinates               Weight
  0.000000  0.000000  0.000000      1.000000
 -0.018286  0.018286  0.018286      8.000000
 -0.036573  0.036573  0.036573      8.000000
 -0.054859  0.054859  0.054859      8.000000
 -0.073145  0.073145  0.073145      8.000000
 -0.091431  0.091431  0.091431      4.000000
  0.000000  0.000000  0.036573      6.000000
 -0.018286  0.018286  0.054859     24.000000
 -0.036573  0.036573  0.073145     24.000000
 -0.054859  0.054859  0.091431     24.000000
 -0.073145  0.073145  0.109718     24.000000
  0.091431 -0.091431 -0.054859     24.000000
  0.073145 -0.073145 -0.036573     24.000000
  0.054859 -0.054859 -0.018286     24.000000
  0.036573 -0.036573  0.000000     12.000000
  0.000000  0.000000  0.073145      6.000000
 -0.018286  0.018286  0.091431     24.000000
 -0.036573  0.036573  0.109718     24.000000
 -0.054859  0.054859  0.128004     24.000000
  0.109718 -0.109718 -0.036573     24.000000
  0.091431 -0.091431 -0.018286     24.000000
  0.073145 -0.073145  0.000000     12.000000
  0.000000  0.000000  0.109718      6.000000
 -0.018286  0.018286  0.128004     24.000000
 -0.036573  0.036573  0.146290     24.000000
  0.128004 -0.128004 -0.018286     24.000000
  0.109718 -0.109718  0.000000     12.000000
  0.000000  0.000000  0.146290      6.000000
 -0.018286  0.018286  0.164576     24.000000
  0.146290 -0.146290  0.000000     12.000000
  0.000000  0.000000  0.182863      3.000000
  0.000000  0.036573  0.073145     24.000000
 -0.018286  0.054859  0.091431     48.000000
 -0.036573  0.073145  0.109718     48.000000
  0.128004 -0.091431 -0.054859     24.000000
  0.000000  0.036573  0.109718     24.000000
 -0.018286  0.054859  0.128004     48.000000
  0.146290 -0.109718 -0.036573     48.000000
  0.128004 -0.091431 -0.018286     48.000000
  0.109718 -0.073145 -0.000000     24.000000
  0.000000  0.036573  0.146290     24.000000
  0.164576 -0.128004 -0.018286     48.000000
  0.146290 -0.109718  0.000000     24.000000
  0.182863 -0.146290 -0.000000     12.000000
  0.182863 -0.109718 -0.036573     24.000000
  0.164576 -0.091431 -0.018286     24.000000
  0.182863 -0.109718  0.000000     12.000000

 SYSTEM =  Si FCC
 POSCAR =  Si [FCC,FCC,cF8]

 Startparameter for this run:
   NWRITE =      2    write-flag & timer
   PREC   = accura    normal or accurate (medium, high low for compatibility)
   ISTART =      0    job   : 0-new  1-cont  2-samecut
   ICHARG =      2    charge: 1-file 2-atom 10-const
   ISPIN  =      1    spin polarized calculation?
   LNONCOLLINEAR =      F non collinear calculations
   LSORBIT =      F    spin-orbit coupling
   INIWAV =      1    electr: 0-lowe 1-rand  2-diag
   LASPH  =      F    aspherical Exc in radial PAW
 Electronic Relaxation 1
   ENCUT  =  520.0 eV  38.22 Ry    6.18 a.u.   7.19  7.19  7.19*2*pi/ulx,y,z
   ENINI  =  520.0     initial cutoff
   ENAUG  =  322.1 eV  augmentation charge cutoff
   NELM   =     60;   NELMIN=  2; NELMDL= -5     # of ELM steps
   EDIFF  = 0.1E-09   stopping-criterion for ELM
   LREAL  =      F    real-space projection
   NLSPLINE    = F    spline interpolate recip. space projectors
   LCOMPAT=      F    compatible to vasp.4.4
   GGA_COMPAT  = T    GGA compatible to vasp.4.4-vasp.4.6
   LMAXPAW     = -100 max onsite density
   LMAXMIX     =    2 max onsite mixed and CHGCAR
   VOSKOWN=      0    Vosko Wilk Nusair interpolation
   ROPT   =    0.00000
 Ionic relaxation
   EDIFFG = -.1E-04   stopping-criterion for IOM
   NSW    =      0    number of steps for IOM
   NBLOCK =      1;   KBLOCK =      1    inner block; outer block
   IBRION =     -1    ionic relax: 0-MD 1-quasi-New 2-CG
   NFREE  =      0    steps in history (QN), initial steepest desc. (CG)
   ISIF   =      0    stress and relaxation
   IWAVPR =     10    prediction:  0-non 1-charg 2-wave 3-comb
   ISYM   =      2    0-nonsym 1-usesym 2-fastsym
   LCORR  =      T    Harris-Foulkes like correction to forces

   POTIM  = 0.5000    time-step for ionic-motion
   TEIN   =    0.0    initial temperature
   TEBEG  =    0.0;   TEEND  =   0.0 temperature during run
   SMASS  =  -3.00    Nose mass-parameter (am)
   estimated Nose-frequenzy (Omega)   =  0.10E-29 period in steps = 0.13E+47 mass=  -0.342E-27a.u.
   SCALEE = 1.0000    scale energy and forces
   NPACO  =    256;   APACO  = 10.0  distance and # of slots for P.C.
   PSTRESS=    0.0 pullay stress

  Mass of Ions in am
   POMASS =  28.09
  Ionic Valenz
   ZVAL   =   4.00
  Atomic Wigner-Seitz radii
  virtual crystal weights
   VCA    =   1.00
   NELECT =       8.0000    total number of electrons
   NUPDOWN=      -1.0000    fix difference up-down

 DOS related values:
   EMIN   =  10.00;   EMAX   =-10.00  energy-range for DOS
   EFERMI =   0.00;   METHOD = LEGACY
[...]
   DQ        =  0.001000  dq finite difference perturbation B field
   LLRAUG    =     F  two centre corrections for induced B field
   LBONE     =     F  B-component reconstruction in AE one-centre
   LVGVCALC  =     T  calculate vGv susceptibility
   LVGVAPPL  =     F  apply vGv susceptibility instead of pGv for G=0

 Random number generation:
   RANDOM_GENERATOR = DEFAULT
   PCG_SEED         = not used

 Static calculation
 charge density and potential will be updated during run
 non-spin polarized calculation
 Variant of blocked Davidson
 Davidson routine will perform the subspace rotation
 perform sub-space diagonalisation
    after iterative eigenvector-optimisation
 modified Broyden-mixing scheme, WC =      100.0
 initial mixing is a Kerker type mixing with AMIX =  0.4000 and BMIX =      1.0000
 Hartree-type preconditioning will be used
 using additional bands            4
 reciprocal scheme for non local part
 use partial core corrections
 calculate Harris-corrections to forces
   (improved forces if not selfconsistent)
 use gradient corrections
 use of overlap-Matrix (Vanderbilt PP)
 Gauss-broadening in eV      SIGMA  =   0.03

  energy-cutoff  :      520.00
  volume of cell :       40.89
      direct lattice vectors                 reciprocal lattice vectors
     0.000000000  2.734291991  2.734291991    -0.182862694  0.182862694  0.182862694
     2.734291991  0.000000000  2.734291991     0.182862694 -0.182862694  0.182862694
     2.734291991  2.734291991  0.000000000     0.182862694  0.182862694 -0.182862694

[...]

 k-points in units of 2pi/SCALE and weight: KPOINTS
   0.00000000  0.00000000  0.00000000       0.001
  -0.01828627  0.01828627  0.01828627       0.008
  -0.03657254  0.03657254  0.03657254       0.008
  -0.05485881  0.05485881  0.05485881       0.008
  -0.07314508  0.07314508  0.07314508       0.008
  -0.09143135  0.09143135  0.09143135       0.004
   0.00000000  0.00000000  0.03657254       0.006
  -0.01828627  0.01828627  0.05485881       0.024
  -0.03657254  0.03657254  0.07314508       0.024
  -0.05485881  0.05485881  0.09143135       0.024
  -0.07314508  0.07314508  0.10971762       0.024
   0.09143135 -0.09143135 -0.05485881       0.024
   0.07314508 -0.07314508 -0.03657254       0.024
   0.05485881 -0.05485881 -0.01828627       0.024
   0.03657254 -0.03657254  0.00000000       0.012
   0.00000000  0.00000000  0.07314508       0.006
  -0.01828627  0.01828627  0.09143135       0.024
  -0.03657254  0.03657254  0.10971762       0.024
  -0.05485881  0.05485881  0.12800389       0.024
   0.10971762 -0.10971762 -0.03657254       0.024
   0.09143135 -0.09143135 -0.01828627       0.024
   0.07314508 -0.07314508  0.00000000       0.012
   0.00000000  0.00000000  0.10971762       0.006
  -0.01828627  0.01828627  0.12800389       0.024
  -0.03657254  0.03657254  0.14629016       0.024
   0.12800389 -0.12800389 -0.01828627       0.024
   0.10971762 -0.10971762  0.00000000       0.012
   0.00000000  0.00000000  0.14629016       0.006
  -0.01828627  0.01828627  0.16457642       0.024
   0.14629016 -0.14629016  0.00000000       0.012
   0.00000000  0.00000000  0.18286269       0.003
   0.00000000  0.03657254  0.07314508       0.024
  -0.01828627  0.05485881  0.09143135       0.048
  -0.03657254  0.07314508  0.10971762       0.048
   0.12800389 -0.09143135 -0.05485881       0.024
   0.00000000  0.03657254  0.10971762       0.024
  -0.01828627  0.05485881  0.12800389       0.048
   0.14629016 -0.10971762 -0.03657254       0.048
   0.12800389 -0.09143135 -0.01828627       0.048
   0.10971762 -0.07314508 -0.00000000       0.024
   0.00000000  0.03657254  0.14629016       0.024
   0.16457642 -0.12800389 -0.01828627       0.048
   0.14629016 -0.10971762  0.00000000       0.024
   0.18286269 -0.14629016 -0.00000000       0.012
   0.18286269 -0.10971762 -0.03657254       0.024
   0.16457642 -0.09143135 -0.01828627       0.024
   0.18286269 -0.10971762  0.00000000       0.012

 k-points in reciprocal lattice and weights: KPOINTS
   0.00000000  0.00000000  0.00000000       0.001
   0.10000000  0.00000000  0.00000000       0.008
   0.20000000  0.00000000  0.00000000       0.008
   0.30000000  0.00000000  0.00000000       0.008
   0.40000000  0.00000000  0.00000000       0.008
   0.50000000  0.00000000  0.00000000       0.004
   0.10000000  0.10000000  0.00000000       0.006
   0.20000000  0.10000000  0.00000000       0.024
   0.30000000  0.10000000  0.00000000       0.024
   0.40000000  0.10000000  0.00000000       0.024
   0.50000000  0.10000000  0.00000000       0.024
  -0.40000000  0.10000000  0.00000000       0.024
  -0.30000000  0.10000000  0.00000000       0.024
  -0.20000000  0.10000000  0.00000000       0.024
  -0.10000000  0.10000000  0.00000000       0.012
   0.20000000  0.20000000  0.00000000       0.006
   0.30000000  0.20000000  0.00000000       0.024
   0.40000000  0.20000000  0.00000000       0.024
   0.50000000  0.20000000  0.00000000       0.024
  -0.40000000  0.20000000  0.00000000       0.024
  -0.30000000  0.20000000  0.00000000       0.024
  -0.20000000  0.20000000  0.00000000       0.012
   0.30000000  0.30000000  0.00000000       0.006
   0.40000000  0.30000000  0.00000000       0.024
   0.50000000  0.30000000  0.00000000       0.024
  -0.40000000  0.30000000  0.00000000       0.024
  -0.30000000  0.30000000  0.00000000       0.012
   0.40000000  0.40000000  0.00000000       0.006
   0.50000000  0.40000000  0.00000000       0.024
  -0.40000000  0.40000000  0.00000000       0.012
   0.50000000  0.50000000  0.00000000       0.003
   0.30000000  0.20000000  0.10000000       0.024
   0.40000000  0.20000000  0.10000000       0.048
   0.50000000  0.20000000  0.10000000       0.048
  -0.40000000  0.20000000  0.10000000       0.024
   0.40000000  0.30000000  0.10000000       0.024
   0.50000000  0.30000000  0.10000000       0.048
  -0.40000000  0.30000000  0.10000000       0.048
  -0.30000000  0.30000000  0.10000000       0.048
  -0.20000000  0.30000000  0.10000000       0.024
   0.50000000  0.40000000  0.10000000       0.024
  -0.40000000  0.40000000  0.10000000       0.048
  -0.30000000  0.40000000  0.10000000       0.024
  -0.40000000  0.50000000  0.10000000       0.012
  -0.40000000  0.40000000  0.20000000       0.024
  -0.30000000  0.40000000  0.20000000       0.024
  -0.30000000  0.50000000  0.20000000       0.012

 position of ions in fractional coordinates (direct lattice)
   0.00000000  0.00000000  0.00000000
   0.25000000  0.25000000  0.25000000

 position of ions in cartesian coordinates  (Angst):
   0.00000000  0.00000000  0.00000000
   1.36714600  1.36714600  1.36714600

 k-point   1 :   0.0000 0.0000 0.0000  plane waves:    1067
 k-point   2 :   0.1000 0.0000 0.0000  plane waves:    1097
 k-point   3 :   0.2000 0.0000 0.0000  plane waves:    1098
 k-point   4 :   0.3000 0.0000 0.0000  plane waves:    1089
 k-point   5 :   0.4000 0.0000 0.0000  plane waves:    1101
 k-point   6 :   0.5000 0.0000 0.0000  plane waves:    1104
 k-point   7 :   0.1000 0.1000 0.0000  plane waves:    1098
 k-point   8 :   0.2000 0.1000 0.0000  plane waves:    1108
 k-point   9 :   0.3000 0.1000 0.0000  plane waves:    1094
 k-point  10 :   0.4000 0.1000 0.0000  plane waves:    1105
 k-point  11 :   0.5000 0.1000 0.0000  plane waves:    1105
 k-point  12 :  -0.4000 0.1000 0.0000  plane waves:    1103
 k-point  13 :  -0.3000 0.1000 0.0000  plane waves:    1101
 k-point  14 :  -0.2000 0.1000 0.0000  plane waves:    1094
 k-point  15 :  -0.1000 0.1000 0.0000  plane waves:    1109
 k-point  16 :   0.2000 0.2000 0.0000  plane waves:    1106
 k-point  17 :   0.3000 0.2000 0.0000  plane waves:    1089
 k-point  18 :   0.4000 0.2000 0.0000  plane waves:    1097
 k-point  19 :   0.5000 0.2000 0.0000  plane waves:    1103
 k-point  20 :  -0.4000 0.2000 0.0000  plane waves:    1114
 k-point  21 :  -0.3000 0.2000 0.0000  plane waves:    1109
 k-point  22 :  -0.2000 0.2000 0.0000  plane waves:    1093
 k-point  23 :   0.3000 0.3000 0.0000  plane waves:    1094
 k-point  24 :   0.4000 0.3000 0.0000  plane waves:    1100
 k-point  25 :   0.5000 0.3000 0.0000  plane waves:    1102
 k-point  26 :  -0.4000 0.3000 0.0000  plane waves:    1106
 k-point  27 :  -0.3000 0.3000 0.0000  plane waves:    1113
 k-point  28 :   0.4000 0.4000 0.0000  plane waves:    1094
 k-point  29 :   0.5000 0.4000 0.0000  plane waves:    1106
 k-point  30 :  -0.4000 0.4000 0.0000  plane waves:    1105
 k-point  31 :   0.5000 0.5000 0.0000  plane waves:    1106
 k-point  32 :   0.3000 0.2000 0.1000  plane waves:    1098
 k-point  33 :   0.4000 0.2000 0.1000  plane waves:    1093
 k-point  34 :   0.5000 0.2000 0.1000  plane waves:    1100
 k-point  35 :  -0.4000 0.2000 0.1000  plane waves:    1108
 k-point  36 :   0.4000 0.3000 0.1000  plane waves:    1086
 k-point  37 :   0.5000 0.3000 0.1000  plane waves:    1093
 k-point  38 :  -0.4000 0.3000 0.1000  plane waves:    1101
 k-point  39 :  -0.3000 0.3000 0.1000  plane waves:    1102
 k-point  40 :  -0.2000 0.3000 0.1000  plane waves:    1103
 k-point  41 :   0.5000 0.4000 0.1000  plane waves:    1094
 k-point  42 :  -0.4000 0.4000 0.1000  plane waves:    1106
 k-point  43 :  -0.3000 0.4000 0.1000  plane waves:    1104
 k-point  44 :  -0.4000 0.5000 0.1000  plane waves:    1102
 k-point  45 :  -0.4000 0.4000 0.2000  plane waves:    1099
 k-point  46 :  -0.3000 0.4000 0.2000  plane waves:    1104
 k-point  47 :  -0.3000 0.5000 0.2000  plane waves:    1104

 maximum and minimum number of plane-waves per node :      1114     1067

 maximum number of plane-waves:      1114
 maximum index in each direction:
   IXMAX=    7   IYMAX=    7   IZMAX=    7
   IXMIN=   -7   IYMIN=   -7   IZMIN=   -7

 serial   3D FFT for wavefunctions
 parallel 3D FFT for charge:
    minimum data exchange during FFTs selected (reduces bandwidth)

 Broyden mixing: mesh for mixing (old mesh)
   NGX = 15   NGY = 15   NGZ = 15
  (NGX  = 60   NGY  = 60   NGZ  = 60)
  gives a total of   3375 points

 initial charge density was supplied:
 charge density of overlapping atoms calculated
 number of electron       8.0000000 magnetization
 keeping initial charge density in first step

 Maximum index for augmentation-charges         5379 (set IRDMAX)

 First call to EWALD:  gamma=   0.515
 Maximum number of real-space cells 3x 3x 3
 Maximum number of reciprocal cells 3x 3x 3

--------------------------------------- Ionic step        1  -------------------------------------------

--------------------------------------- Iteration      1(   1)  ---------------------------------------

 eigenvalue-minimisations  :   752
 total energy-change (2. order) : 0.6777021E+01  (-0.3296750E+03)
 number of electron       8.0000000 magnetization
 augmentation part        8.0000000 magnetization

 Free energy of the ion-electron system (eV)
  alpha Z        PSCENC =         3.29344055
  Ewald energy   TEWEN  =      -226.95087875
  -Hartree energ DENC   =       -11.32218615
  -exchange      EXHF   =         0.00000000
  -V(xc)+E(xc)   XCENC  =       -18.68487302
  PAW double counting   =       176.24759923     -141.06103558
  entropy T*S    EENTRO =        -0.00029862
  eigenvalues    EBANDS =        19.12255032
  atomic energy  EATOM  =       206.13270273
  Solvation  Ediel_sol  =         0.00000000
  free energy    TOTEN  =         6.77702072 eV

  energy without entropy =        6.77731934  energy(sigma->0) =        6.77717003

[...]

 eigenvalue-minimisations  :  1184
 total energy-change (2. order) :-0.1755752E+02  (-0.1702862E+02)
 number of electron       8.0000000 magnetization
 augmentation part        8.0000000 magnetization

[...]

 Broyden mixing:
  rms(total) = 0.47494E+00    rms(broyden)= 0.47494E+00
  rms(prec ) = 0.93064E+00
  weight for this iteration     100.00

[...]

 eigenvalues of (default mixing * dielectric matrix)
  average eigenvalue GAMMA=   2.5600
  2.5600

[...]

 eigenvalue-minimisations  :   720
 total energy-change (2. order) :-0.1264198E-08  (-0.2164009E-11)
 number of electron       8.0000001 magnetization
 augmentation part       -0.4582897 magnetization

[...]

 eigenvalue-minimisations  :   552
 total energy-change (2. order) : 0.1524540E-09  (-0.6688039E-13)
 number of electron       8.0000001 magnetization
 augmentation part       -0.4582897 magnetization

 Broyden mixing:
  rms(total) = 0.10401E-06    rms(broyden)= 0.10401E-06
  rms(prec ) = 0.12755E-06
  weight for this iteration     100.00

 eigenvalues of (default mixing * dielectric matrix)
  average eigenvalue GAMMA=   1.8825
  3.2619  2.7848  2.6015  2.6015  2.5475  2.2496  1.5716  0.9546  0.9546  0.9953
  0.9953  1.0716

[...]

--------------------------------------- Iteration      1(  18)  ---------------------------------------

 eigenvalue-minimisations  :   448
 total energy-change (2. order) :-0.4615686E-10  ( 0.1394534E-12)
 number of electron       8.0000001 magnetization
 augmentation part       -0.4582897 magnetization

 Free energy of the ion-electron system (eV)
  alpha Z        PSCENC =         3.29344055
  Ewald energy   TEWEN  =      -226.95087875
  -Hartree energ DENC   =       -15.17283597
  -exchange      EXHF   =         0.00000000
  -V(xc)+E(xc)   XCENC  =       -18.05999100
  PAW double counting   =       829.90339067     -794.92232505
  entropy T*S    EENTRO =        -0.00000000
  eigenvalues    EBANDS =         4.92729322
  atomic energy  EATOM  =       206.13270273
  Solvation  Ediel_sol  =         0.00000000
  free energy    TOTEN  =       -10.84920360 eV

  energy without entropy =      -10.84920360  energy(sigma->0) =      -10.84920360

 average (electrostatic) potential at core
  the test charge radii are     0.9892
  (the norm of the test charge is              1.0000)
       1 -83.4818       2 -83.4818

 E-fermi :   5.7959     XC(G=0):  -9.3274     alpha+bet :-11.7326

 Fermi energy:         5.7958809382

 k-point     1 :       0.0000    0.0000    0.0000
  band No.  band energies     occupation
      1      -6.1982      2.00000
      2       5.6170      2.00000
      3       5.6170      2.00000
      4       5.6170      2.00000
      5       8.1739      0.00000
      6       8.1739      0.00000
      7       8.1739      0.00000
      8       8.7518      0.00000

[...]

 k-point    47 :      -0.3000    0.5000    0.2000
  band No.  band energies     occupation
      1      -1.9909      2.00000
      2      -1.9909      2.00000
      3       1.9306      2.00000
      4       1.9306      2.00000
      5       9.0426      0.00000
      6       9.0426      0.00000
      7      11.4792      0.00000
      8      11.4792      0.00000

 soft charge-density along one line, spin component           1
         0         1         2         3         4         5         6         7         8         9
 total charge-density along one line

------------------------ aborting loop because EDIFF is reached ----------------------------------------

 VOLUME and BASIS-vectors are now :
  energy-cutoff  :      520.00
  volume of cell :       40.89
      direct lattice vectors                 reciprocal lattice vectors
     0.000000000  2.734291991  2.734291991    -0.182862694  0.182862694  0.182862694
     2.734291991  0.000000000  2.734291991     0.182862694 -0.182862694  0.182862694
     2.734291991  2.734291991  0.000000000     0.182862694  0.182862694 -0.182862694

  length of vectors
     3.866872817  3.866872817  3.866872817     0.316727477  0.316727477  0.316727477

 FORCES acting on ions
    electron-ion (+dipol)            ewald-force                    non-local-force                 convergence-correction
   0.564E-08 0.564E-08 0.809E-08   -.325E-15 -.901E-15 0.113E-15   -.763E-16 -.278E-16 -.520E-16   0.136E-12 0.135E-12 0.134E-12
   -.564E-08 -.564E-08 -.809E-08   0.471E-15 0.992E-15 -.560E-15   0.763E-16 0.486E-16 0.520E-16   -.131E-12 -.131E-12 -.133E-12
   -.445E-13 -.825E-13 -.117E-13   0.146E-15 0.902E-16 -.447E-15   0.000E+00 0.208E-16 0.000E+00   0.507E-14 0.423E-14 0.278E-15

 POSITION                                       TOTAL-FORCE (eV/Angst)
      0.00000      0.00000      0.00000         0.000000      0.000000     -0.000000
      1.36715      1.36715      1.36715        -0.000000     -0.000000      0.000000
    total drift:                               -0.000000     -0.000000     -0.000000

  FREE ENERGIE OF THE ION-ELECTRON SYSTEM (eV)
  free  energy   TOTEN  =       -10.84920360 eV

  energy  without entropy=      -10.84920360  energy(sigma->0) =      -10.84920360

 stress matrix after NEB project (eV)
      0.00000      0.00000      0.00000
      0.00000      0.00000      0.00000
      0.00000      0.00000      0.00000
  FORCES: max atom, RMS     0.000000    0.000000
  FORCE total and by dimension    0.000000    0.000000
  Stress total and by dimension    0.000000    0.000000